77
-2 1 -839.6797486898968
C       58.67488108    36.73868166    57.00209572
H       59.06468292    36.99981414    56.01644741
H       58.51265983    37.53020628    57.73387103
C       58.44446914    35.46228419    57.32931089
C       57.96764418    35.10453967    58.73329565
O       58.24440632    33.95367019    59.23186501
O       57.28574317    35.94854018    59.35415303
O       58.50449366    34.49308293    56.32803405
C       59.28033921    33.36517163    56.23355651
H       55.81598703    32.42389619    58.50324394
C       58.66085781    32.15879322    56.42890041
H       57.65098852    32.19455742    56.84806454
C       59.28597100    30.88476641    56.26796409
C       60.57479380    30.83811323    55.77036751
H       61.11134996    29.90083531    55.58241339
C       61.31823671    32.06119096    55.58192013
H       62.01130538    32.08563906    54.69716164
C       60.68016845    33.34589861    55.86089774
H       62.33519279    32.07352263    56.20015376
O       61.34725969    34.44111376    55.84311629
H       62.33036562    34.23328870    55.80040572
C       58.57456177    29.71632184    56.90709766
O       58.05301257    29.92874218    58.05123091
O       58.51353942    28.62196068    56.29537838
C       53.21740000    31.67870000    51.94570000
N       53.36797700    32.06392000    50.68164600
H       53.05746000    32.72642200    51.37790000
H       53.56414600    31.10888200    50.94531300
N       52.80850100    32.55110400    52.86254900
H       53.00467000    31.59606600    53.12621600
H       52.92284900    32.84364000    51.90262800
N       53.47572100    30.42107600    52.29290500
H       53.59007000    30.71361100    51.33298400
H       53.16520400    31.08357800    52.98915900
C       64.30860000    30.09970000    52.53550000
O       65.49242500    30.16147600    52.13896300
O       63.59731600    29.07231700    52.56805900
H       63.85062100    31.03555000    52.88826100
C       64.14040000    34.07180000    56.80490000
O       65.32422500    34.13357600    56.40836300
O       63.42911600    33.04441700    56.83745900
H       63.68242100    35.00765000    57.15766100
C       55.33790472    33.73470007    59.83179970
N       55.48848026    34.11990335    58.56775101
H       55.17796235    34.78241632    59.26400119
H       55.68466870    33.16490077    58.83140330
N       54.92898414    34.60711687    60.74864105
H       55.12515623    33.65209240    61.01232193
H       55.04333147    34.89964534    59.78871452
N       55.59626285    32.47711373    60.17905281
H       55.71063067    32.76960459    59.21912232
H       55.28571987    33.13960178    60.87529357
C       59.64430000    31.49730000    60.26190000
N       59.79487700    31.88252000    58.99784600
H       59.48436000    32.54502200    59.69410000
H       59.99104600    30.92748200    59.26151300
N       59.23540100    32.36970400    61.17874900
H       59.43157000    31.41466600    61.44241600
H       59.34974900    32.66224000    60.21882800
N       59.90262100    30.23967600    60.60910500
H       60.01697000    30.53221100    59.64918400
H       59.59210400    30.90217800    61.30535900
C       56.24140000    28.33150000    54.94860000
N       56.39197700    28.71672000    53.68454600
H       56.08146000    29.37922200    54.38080000
H       56.58814600    27.76168200    53.94821300
N       55.83250100    29.20390400    55.86544900
H       56.02867000    28.24886600    56.12911600
H       55.94684900    29.49644000    54.90552800
N       56.49972100    27.07387600    55.29580500
H       56.61407000    27.36641100    54.33588400
H       56.18920400    27.73637800    55.99205900
Ar      60.46883465    35.96614634    59.24224488
Ar      59.35391835    31.02282186    52.89247353
Ar      58.38684915    36.64979257    53.75010946
Ar      61.83974600    29.29797500    58.86780200
Ar      65.15821900    34.61859700    54.14247500
