100
K10_apot mu100 surrsized
C     60.111938    34.383969    57.210132
H     60.607199    33.429939    57.384609
H     60.724693    35.271818    57.059193
C     58.780577    34.503532    57.151958
C     58.092182    35.834261    56.893354
O     58.812467    36.818218    56.578789
O     56.839549    35.848917    57.009617
O     57.934615    33.426403    57.345998
C     57.676936    32.537732    56.200806
H     57.019017    31.763769    56.624072
C     58.986487    31.961840    55.793172
H     59.463930    31.242983    56.460496
C     59.683105    32.482671    54.768151
C     59.064321    33.483709    53.893179
H     59.702361    33.904544    53.110969
C     57.781253    33.865659    54.031533
H     57.332181    34.602354    53.356629
C     56.889799    33.271093    55.086182
H     56.347190    34.090648    55.585880
O     55.962863    32.397707    54.434668
H     55.310845    32.109527    55.092770
C     61.123200    32.062126    54.534208
O     61.784962    31.702328    55.543381
O     61.541071    32.106513    53.352738
C     63.810500    29.095600    54.347900
O     64.994325    29.157376    53.951363
O     63.099216    28.068217    54.380459
H     63.352521    30.031450    54.700661
C     62.715900    31.477600    50.099500
O     63.899725    31.539376    49.702963
O     62.004616    30.450217    50.132059
H     62.257921    32.413450    50.452261
C     54.334500    28.698500    60.134800
N     54.485077    29.083720    58.870746
H     54.174560    29.746222    59.567000
H     54.681246    28.128682    59.134413
N     53.925601    29.570904    61.051649
H     54.121770    28.615866    61.315316
H     54.039949    29.863440    60.091728
N     54.592821    27.440876    60.482005
H     54.707170    27.733411    59.522084
H     54.282304    28.103378    61.178259
C     53.185400    33.555200    52.038100
N     53.335977    33.940420    50.774046
H     53.025460    34.602922    51.470300
H     53.532146    32.985382    51.037713
N     52.776501    34.427604    52.954949
H     52.972670    33.472566    53.218616
H     52.890849    34.720140    51.995028
N     53.443721    32.297576    52.385305
H     53.558070    32.590111    51.425384
H     53.133204    32.960078    53.081559
C     56.457400    37.655900    52.986900
N     56.607977    38.041120    51.722846
H     56.297460    38.703622    52.419100
H     56.804146    37.086082    51.986513
N     56.048501    38.528304    53.903749
H     56.244670    37.573266    54.167416
H     56.162849    38.820840    52.943828
N     56.715721    36.398276    53.334105
H     56.830070    36.690811    52.374184
H     56.405204    37.060778    54.030359
C     64.140400    34.071800    56.804900
O     65.324225    34.133576    56.408363
O     63.429116    33.044417    56.837459
H     63.682421    35.007650    57.157661
C     55.337900    33.734700    59.831800
N     55.488477    34.119920    58.567746
H     55.177960    34.782422    59.264000
H     55.684646    33.164882    58.831413
N     54.929001    34.607104    60.748649
H     55.125170    33.652066    61.012316
H     55.043349    34.899640    59.788728
N     55.596221    32.477076    60.179005
H     55.710570    32.769611    59.219084
H     55.285704    33.139578    60.875259
C     59.644300    31.497300    60.261900
N     59.794877    31.882520    58.997846
H     59.484360    32.545022    59.694100
H     59.991046    30.927482    59.261513
N     59.235401    32.369704    61.178749
H     59.431570    31.414666    61.442416
H     59.349749    32.662240    60.218828
N     59.902621    30.239676    60.609105
H     60.016970    30.532211    59.649184
H     59.592104    30.902178    61.305359
C     56.241400    28.331500    54.948600
N     56.391977    28.716720    53.684546
H     56.081460    29.379222    54.380800
H     56.588146    27.761682    53.948213
N     55.832501    29.203904    55.865449
H     56.028670    28.248866    56.129116
H     55.946849    29.496440    54.905528
N     56.499721    27.073876    55.295805
H     56.614070    27.366411    54.335884
H     56.189204    27.736378    55.992059
C     57.316700    38.755500    59.119500
O     58.500525    38.817276    58.722963
O     56.605416    37.728117    59.152059
H     56.858721    39.691350    59.472261