100
-2 1 -842.2860538241637
C       56.92173577    32.55176307    55.79514908
H       57.92834713    32.39323049    56.17131414
H       56.83964513    32.90105046    54.77293047
C       55.82192545    32.31854793    56.51813132
C       54.40995463    32.52990379    55.94430143
O       54.29066342    33.17983536    54.84237445
O       53.45555636    32.05060045    56.60464857
O       55.91284923    31.79566577    57.81094244
C       62.64227135    31.83182984    54.53804378
H       63.38826458    32.50982253    55.00522756
C       61.61799140    31.39486151    55.47890214
H       61.66871782    31.94072641    56.42572689
C       60.80073012    30.38018930    55.06343391
C       61.04237773    29.73304819    53.77791207
H       61.78565491    28.82658936    53.90170216
C       61.74037390    30.41045816    52.73042893
H       61.80434295    30.09873296    51.65745001
C       62.66274584    31.39324648    53.21285619
H       63.44696391    31.70382427    52.51492720
O       54.50366496    30.24714676    54.09500101
H       54.03534767    30.45665556    54.90960900
C       59.49794294    29.73760526    55.08575953
O       58.47933181    29.63648177    55.84244415
O       59.54930416    29.19354816    53.86884256
C       63.81050000    29.09560000    54.34790000
O       64.99432500    29.15737600    53.95136300
O       63.09921600    28.06821700    54.38045900
H       63.35252100    30.03145000    54.70066100
C       62.71590000    31.47760000    50.09950000
O       63.89972500    31.53937600    49.70296300
O       62.00461600    30.45021700    50.13205900
H       62.25792100    32.41345000    50.45226100
C       54.33450000    28.69850000    60.13480000
N       54.48507700    29.08372000    58.87074600
H       54.17456000    29.74622200    59.56700000
H       54.68124600    28.12868200    59.13441300
N       53.92560100    29.57090400    61.05164900
H       54.12177000    28.61586600    61.31531600
H       54.03994900    29.86344000    60.09172800
N       54.59282100    27.44087600    60.48200500
H       54.70717000    27.73341100    59.52208400
H       54.28230400    28.10337800    61.17825900
C       53.18540000    33.55520000    52.03810000
N       53.33597700    33.94042000    50.77404600
H       53.02546000    34.60292200    51.47030000
H       53.53214600    32.98538200    51.03771300
N       52.77650100    34.42760400    52.95494900
H       52.97267000    33.47256600    53.21861600
H       52.89084900    34.72014000    51.99502800
N       53.44372100    32.29757600    52.38530500
H       53.55807000    32.59011100    51.42538400
H       53.13320400    32.96007800    53.08155900
C       56.45740000    37.65590000    52.98690000
N       56.60797700    38.04112000    51.72284600
H       56.29746000    38.70362200    52.41910000
H       56.80414600    37.08608200    51.98651300
N       56.04850100    38.52830400    53.90374900
H       56.24467000    37.57326600    54.16741600
H       56.16284900    38.82084000    52.94382800
N       56.71572100    36.39827600    53.33410500
H       56.83007000    36.69081100    52.37418400
H       56.40520400    37.06077800    54.03035900
C       64.14040000    34.07180000    56.80490000
O       65.32422500    34.13357600    56.40836300
O       63.42911600    33.04441700    56.83745900
H       63.68242100    35.00765000    57.15766100
C       55.33790000    33.73470000    59.83180000
N       55.48847700    34.11992000    58.56774600
H       55.17796000    34.78242200    59.26400000
H       55.68464600    33.16488200    58.83141300
N       54.92900100    34.60710400    60.74864900
H       55.12517000    33.65206600    61.01231600
H       55.04334900    34.89964000    59.78872800
N       55.59622100    32.47707600    60.17900500
H       55.71057000    32.76961100    59.21908400
H       55.28570400    33.13957800    60.87525900
C       59.64430000    31.49730000    60.26190000
N       59.79487700    31.88252000    58.99784600
H       59.48436000    32.54502200    59.69410000
H       59.99104600    30.92748200    59.26151300
N       59.23540100    32.36970400    61.17874900
H       59.43157000    31.41466600    61.44241600
H       59.34974900    32.66224000    60.21882800
N       59.90262100    30.23967600    60.60910500
H       60.01697000    30.53221100    59.64918400
H       59.59210400    30.90217800    61.30535900
C       56.24140000    28.33150000    54.94860000
N       56.39197700    28.71672000    53.68454600
H       56.08146000    29.37922200    54.38080000
H       56.58814600    27.76168200    53.94821300
N       55.83250100    29.20390400    55.86544900
H       56.02867000    28.24886600    56.12911600
H       55.94684900    29.49644000    54.90552800
N       56.49972100    27.07387600    55.29580500
H       56.61407000    27.36641100    54.33588400
H       56.18920400    27.73637800    55.99205900
C       57.31670000    38.75550000    59.11950000
O       58.50052500    38.81727600    58.72296300
O       56.60541600    37.72811700    59.15205900
H       56.85872100    39.69135000    59.47226100
