112
-2 1 -841.004468563965
C       52.87538913    34.35691712    61.11376075
H       53.80570161    33.79216704    61.12023977
H       52.94659181    35.43844070    61.00307685
C       51.65363667    33.79967363    61.19560873
C       50.40138431    34.65321278    61.25825861
O       49.36378793    34.15252678    61.71310639
O       50.47724232    35.87461496    60.83006487
O       51.33872758    32.48412987    61.29189820
C       52.34649764    31.49332013    61.57779692
H       51.74500888    30.58189649    61.75888517
C       53.09138619    31.79381708    62.84832030
H       52.55506109    32.31711197    63.64243318
C       54.33394646    31.32352142    63.06749123
C       55.02072072    30.58222583    61.99858757
H       55.99957259    30.16119976    62.23293257
C       54.50615473    30.48045735    60.76069904
H       55.06249897    29.98843075    59.95584271
C       53.22281135    31.17323905    60.36020198
H       53.51240542    32.11066857    59.84776935
O       52.41888330    30.39947385    59.46624526
H       52.93714490    30.28705313    58.65290185
C       55.04593196    31.61623872    64.37854725
O       54.43860073    32.30132014    65.24171902
O       56.23569257    31.19553467    64.50027233
C       50.37810000    37.98850000    62.92470000
N       50.52867700    38.37372000    61.66064600
H       50.21816000    39.03622200    62.35690000
H       50.72484600    37.41868200    61.92431300
N       49.96920100    38.86090400    63.84154900
H       50.16537000    37.90586600    64.10521600
H       50.08354900    39.15344000    62.88162800
N       50.63642100    36.73087600    63.27190500
H       50.75077000    37.02341100    62.31198400
H       50.32590400    37.39337800    63.96815900
C       67.40350000    34.43050000    62.81760000
N       67.55407700    34.81572000    61.55354600
H       67.24356000    35.47822200    62.24980000
H       67.75024600    33.86068200    61.81721300
N       66.99460100    35.30290400    63.73444900
H       67.19077000    34.34786600    63.99811600
H       67.10894900    35.59544000    62.77452800
N       67.66182100    33.17287600    63.16480500
H       67.77617000    33.46541100    62.20488400
H       67.35130400    33.83537800    63.86105900
C       58.34830000    39.52560000    65.31590000
N       58.49887700    39.91082000    64.05184600
H       58.18836000    40.57332200    64.74810000
H       58.69504600    38.95578200    64.31551300
N       57.93940100    40.39800400    66.23274900
H       58.13557000    39.44296600    66.49641600
H       58.05374900    40.69054000    65.27282800
N       58.60662100    38.26797600    65.66310500
H       58.72097000    38.56051100    64.70318400
H       58.29610400    38.93047800    66.35935900
C       48.05730000    36.29740000    59.00770000
N       48.20787700    36.68262000    57.74364600
H       47.89736000    37.34512200    58.43990000
H       48.40404600    35.72758200    58.00731300
N       47.64840100    37.16980400    59.92454900
H       47.84457000    36.21476600    60.18821600
H       47.76274900    37.46234000    58.96462800
N       48.31562100    35.03977600    59.35490500
H       48.42997000    35.33231100    58.39498400
H       48.00510400    35.70227800    60.05115900
C       68.68310000    34.68550000    48.48910000
O       69.86692500    34.74727600    48.09256300
O       67.97181600    33.65811700    48.52165900
H       68.22512100    35.62135000    48.84186100
C       57.74400000    26.20080000    63.46010000
N       57.89457700    26.58602000    62.19604600
H       57.58406000    27.24852200    62.89230000
H       58.09074600    25.63098200    62.45971300
N       57.33510100    27.07320400    64.37694900
H       57.53127000    26.11816600    64.64061600
H       57.44944900    27.36574000    63.41702800
N       58.00232100    24.94317600    63.80730500
H       58.11667000    25.23571100    62.84738400
H       57.69180400    25.60567800    64.50355900
C       69.20080000    27.65520000    51.66980000
O       70.38462500    27.71697600    51.27326300
O       68.48951600    26.62781700    51.70235900
H       68.74282100    28.59105000    52.02256100
C       47.37730000    31.19100000    59.09960000
N       47.52787700    31.57622000    57.83554600
H       47.21736000    32.23872200    58.53180000
H       47.72404600    30.62118200    58.09921300
N       46.96840100    32.06340400    60.01644900
H       47.16457000    31.10836600    60.28011600
H       47.08274900    32.35594000    59.05652800
N       47.63562100    29.93337600    59.44680500
H       47.74997000    30.22591100    58.48688400
H       47.32510400    30.59587800    60.14305900
C       50.03890000    25.86030000    58.33800000
N       50.18947700    26.24552000    57.07394600
H       49.87896000    26.90802200    57.77020000
H       50.38564600    25.29048200    57.33761300
N       49.63000100    26.73270400    59.25484900
H       49.82617000    25.77766600    59.51851600
H       49.74434900    27.02524000    58.29492800
N       50.29722100    24.60267600    58.68520500
H       50.41157000    24.89521100    57.72528400
H       49.98670400    25.26517800    59.38145900
C       56.69140000    33.23660000    66.73560000
N       56.84197700    33.62182000    65.47154600
H       56.53146000    34.28432200    66.16780000
H       57.03814600    32.66678200    65.73521300
N       56.28250100    34.10900400    67.65244900
H       56.47867000    33.15396600    67.91611600
H       56.39684900    34.40154000    66.69252800
N       56.94972100    31.97897600    67.08280500
H       57.06407000    32.27151100    66.12288400
H       56.63920400    32.64147800    67.77905900
