100
shell3p0 K=10 +-1 net-free proxy-4.74
C     60.11193800    34.38396900    57.21013200
H     60.60719900    33.42993900    57.38460900
H     60.72469300    35.27181800    57.05919300
C     58.78057700    34.50353200    57.15195800
C     58.09218200    35.83426100    56.89335400
O     58.81246700    36.81821800    56.57878900
O     56.83954900    35.84891700    57.00961700
O     57.93461500    33.42640300    57.34599800
C     57.67693600    32.53773200    56.20080600
H     57.01901700    31.76376900    56.62407200
C     58.98648700    31.96184000    55.79317200
H     59.46393000    31.24298300    56.46049600
C     59.68310500    32.48267100    54.76815100
C     59.06432100    33.48370900    53.89317900
H     59.70236100    33.90454400    53.11096900
C     57.78125300    33.86565900    54.03153300
H     57.33218100    34.60235400    53.35662900
C     56.88979900    33.27109300    55.08618200
H     56.34719000    34.09064800    55.58588000
O     55.96286300    32.39770700    54.43466800
H     55.31084500    32.10952700    55.09277000
C     61.12320000    32.06212600    54.53420800
O     61.78496200    31.70232800    55.54338100
O     61.54107100    32.10651300    53.35273800
C     65.994700    32.644900    54.169900
O     67.178525    32.706676    53.773363
O     65.283416    31.617517    54.202459
H     65.536721    33.580750    54.522661
C     55.593200    27.544300    57.802000
N     55.743777    27.929520    56.537946
H     55.433260    28.592022    57.234200
H     55.939946    26.974482    56.801613
N     55.184301    28.416704    58.718849
H     55.380470    27.461666    58.982516
H     55.298649    28.709240    57.758928
N     55.851521    26.286676    58.149205
H     55.965870    26.579211    57.189284
H     55.541004    26.949178    58.845459
C     61.694700    28.822000    59.133700
N     61.845277    29.207220    57.869646
H     61.534760    29.869722    58.565900
H     62.041446    28.252182    58.133313
N     61.285801    29.694404    60.050549
H     61.481970    28.739366    60.314216
H     61.400149    29.986940    59.090628
N     61.953021    27.564376    59.480905
H     62.067370    27.856911    58.520984
H     61.642504    28.226878    60.177159
C     59.045200    31.800800    61.902700
N     59.195777    32.186020    60.638646
H     58.885260    32.848522    61.334900
H     59.391946    31.230982    60.902313
N     58.636301    32.673204    62.819549
H     58.832470    31.718166    63.083216
H     58.750649    32.965740    61.859628
N     59.303521    30.543176    62.249905
H     59.417870    30.835711    61.289984
H     58.993004    31.205678    62.946159
C     59.043800    30.761100    49.838200
O     60.227625    30.822876    49.441663
O     58.332516    29.733717    49.870759
H     58.585821    31.696950    50.190961
C     61.338500    27.400500    54.008200
O     62.522325    27.462276    53.611663
O     60.627216    26.373117    54.040759
H     60.880521    28.336350    54.360961
C     64.196300    29.761900    50.550900
O     65.380125    29.823676    50.154363
O     63.485016    28.734517    50.583459
H     63.738321    30.697750    50.903661
C     54.516600    31.616000    60.099600
N     54.667177    32.001220    58.835546
H     54.356660    32.663722    59.531800
H     54.863346    31.046182    59.099213
N     54.107701    32.488404    61.016449
H     54.303870    31.533366    61.280116
H     54.222049    32.780940    60.056528
N     54.774921    30.358376    60.446805
H     54.889270    30.650911    59.486884
H     54.464404    31.020878    61.143059
C     62.925600    35.910900    60.643500
N     63.076177    36.296120    59.379446
H     62.765660    36.958622    60.075700
H     63.272346    35.341082    59.643113
N     62.516701    36.783304    61.560349
H     62.712870    35.828266    61.824016
H     62.631049    37.075840    60.600428
N     63.183921    34.653276    60.990705
H     63.298270    34.945811    60.030784
H     62.873404    35.315778    61.686959
C     55.075700    37.014700    61.000400
N     55.226277    37.399920    59.736346
H     54.915760    38.062422    60.432600
H     55.422446    36.444882    60.000013
N     54.666801    37.887104    61.917249
H     54.862970    36.932066    62.180916
H     54.781149    38.179640    60.957328
N     55.334021    35.757076    61.347605
H     55.448370    36.049611    60.387684
H     55.023504    36.419578    62.043859
