100
-2 1 -841.1747147353299
C       57.47568271    32.45971673    58.39292504
H       57.82791790    31.41445370    58.45244749
H       57.58915527    32.89688393    57.39480462
C       57.00541565    33.20638149    59.41313570
C       56.52045323    34.59175415    59.20822311
O       57.28187501    35.55847662    59.50691092
O       55.24686524    34.70732580    59.01615842
O       56.76963997    32.80138575    60.71827729
C       59.48707236    29.91430148    53.05701764
H       58.82576517    29.74712957    52.18489911
C       59.06011805    30.05703477    54.35178219
H       57.98081156    30.00198305    54.53901385
C       59.94331892    30.29625858    55.52048043
C       61.33990368    30.36552604    55.14975321
H       62.09949302    30.54289273    55.92102896
C       61.88570387    30.12300502    53.83197472
H       62.58557317    29.08302216    53.76954587
C       60.93016089    29.83525936    52.70700775
H       62.91914120    30.55289205    53.59362466
O       61.18756210    29.34580788    51.60874980
H       62.12509916    29.02068098    51.23210092
C       59.37034133    30.32270845    56.91089536
O       58.19063938    29.81075454    57.18472132
O       59.97127979    30.84374922    58.00722449
C       65.99470000    32.64490000    54.16990000
O       67.17852500    32.70667600    53.77336300
O       65.28341600    31.61751700    54.20245900
H       65.53672100    33.58075000    54.52266100
C       55.59320000    27.54430000    57.80200000
N       55.74377700    27.92952000    56.53794600
H       55.43326000    28.59202200    57.23420000
H       55.93994600    26.97448200    56.80161300
N       55.18430100    28.41670400    58.71884900
H       55.38047000    27.46166600    58.98251600
H       55.29864900    28.70924000    57.75892800
N       55.85152100    26.28667600    58.14920500
H       55.96587000    26.57921100    57.18928400
H       55.54100400    26.94917800    58.84545900
C       61.69470000    28.82200000    59.13370000
N       61.84527700    29.20722000    57.86964600
H       61.53476000    29.86972200    58.56590000
H       62.04144600    28.25218200    58.13331300
N       61.28580100    29.69440400    60.05054900
H       61.48197000    28.73936600    60.31421600
H       61.40014900    29.98694000    59.09062800
N       61.95302100    27.56437600    59.48090500
H       62.06737000    27.85691100    58.52098400
H       61.64250400    28.22687800    60.17715900
C       59.04520000    31.80080000    61.90270000
N       59.19577700    32.18602000    60.63864600
H       58.88526000    32.84852200    61.33490000
H       59.39194600    31.23098200    60.90231300
N       58.63630100    32.67320400    62.81954900
H       58.83247000    31.71816600    63.08321600
H       58.75064900    32.96574000    61.85962800
N       59.30352100    30.54317600    62.24990500
H       59.41787000    30.83571100    61.28998400
H       58.99300400    31.20567800    62.94615900
C       59.04380000    30.76110000    49.83820000
O       60.22762500    30.82287600    49.44166300
O       58.33251600    29.73371700    49.87075900
H       58.58582100    31.69695000    50.19096100
C       61.33850000    27.40050000    54.00820000
O       62.52232500    27.46227600    53.61166300
O       60.62721600    26.37311700    54.04075900
H       60.88052100    28.33635000    54.36096100
C       64.19630000    29.76190000    50.55090000
O       65.38012500    29.82367600    50.15436300
O       63.48501600    28.73451700    50.58345900
H       63.73832100    30.69775000    50.90366100
C       54.51660000    31.61600000    60.09960000
N       54.66717700    32.00122000    58.83554600
H       54.35666000    32.66372200    59.53180000
H       54.86334600    31.04618200    59.09921300
N       54.10770100    32.48840400    61.01644900
H       54.30387000    31.53336600    61.28011600
H       54.22204900    32.78094000    60.05652800
N       54.77492100    30.35837600    60.44680500
H       54.88927000    30.65091100    59.48688400
H       54.46440400    31.02087800    61.14305900
C       62.92560000    35.91090000    60.64350000
N       63.07617700    36.29612000    59.37944600
H       62.76566000    36.95862200    60.07570000
H       63.27234600    35.34108200    59.64311300
N       62.51670100    36.78330400    61.56034900
H       62.71287000    35.82826600    61.82401600
H       62.63104900    37.07584000    60.60042800
N       63.18392100    34.65327600    60.99070500
H       63.29827000    34.94581100    60.03078400
H       62.87340400    35.31577800    61.68695900
C       55.07570000    37.01470000    61.00040000
N       55.22627700    37.39992000    59.73634600
H       54.91576000    38.06242200    60.43260000
H       55.42244600    36.44488200    60.00001300
N       54.66680100    37.88710400    61.91724900
H       54.86297000    36.93206600    62.18091600
H       54.78114900    38.17964000    60.95732800
N       55.33402100    35.75707600    61.34760500
H       55.44837000    36.04961100    60.38768400
H       55.02350400    36.41957800    62.04385900
