88
shell7p1 TS-under-field
C     60.14190600    34.25017500    56.86750500
H     60.65410400    33.35229400    57.20242100
H     60.73860600    35.07435300    56.47491200
C     58.80287300    34.45194900    57.16141800
C     58.13069700    35.79868100    56.84307300
O     58.86276300    36.77666300    56.53446600
O     56.87734100    35.82963400    56.93983700
O     58.04533200    33.51170800    57.60013500
C     57.53567900    32.20862600    56.01945400
H     56.92805500    31.57263500    56.66681400
C     58.86068700    31.87524000    55.78984900
H     59.36035100    31.12725100    56.40326400
C     59.64119800    32.67145500    54.96010600
C     58.97535300    33.57937300    54.02371700
H     59.61208400    34.05213900    53.27111900
C     57.64453400    33.77154800    54.05277400
H     57.14874400    34.42947900    53.33266900
C     56.77153500    33.13738000    55.09626400
H     56.36648800    33.96180100    55.70835200
O     55.70405500    32.44082700    54.44502300
H     55.04194600    32.20048300    55.11214300
C     61.07068900    32.21901900    54.67969600
O     61.72429900    31.71851300    55.62834500
O     61.44865900    32.31879300    53.48933100
C     58.404000    28.293400    64.583100
N     58.554577    28.678620    63.319046
H     58.244060    29.341122    64.015300
H     58.750746    27.723582    63.582713
N     57.995101    29.165804    65.499949
H     58.191270    28.210766    65.763616
H     58.109449    29.458340    64.540028
N     58.662321    27.035776    64.930305
H     58.776670    27.328311    63.970384
H     58.351804    27.698278    65.626559
C     67.013600    28.508500    47.750600
O     68.197425    28.570276    47.354063
O     66.302316    27.481117    47.783159
H     66.555621    29.444350    48.103361
C     52.461300    28.076000    62.723100
N     52.611877    28.461220    61.459046
H     52.301360    29.123722    62.155300
H     52.808046    27.506182    61.722713
N     52.052401    28.948404    63.639949
H     52.248570    27.993366    63.903616
H     52.166749    29.240940    62.680028
N     52.719621    26.818376    63.070305
H     52.833970    27.110911    62.110384
H     52.409104    27.480878    63.766559
C     60.410800    36.447900    65.771500
N     60.561377    36.833120    64.507446
H     60.250860    37.495622    65.203700
H     60.757546    35.878082    64.771113
N     60.001901    37.320304    66.688349
H     60.198070    36.365266    66.952016
H     60.116249    37.612840    65.728428
N     60.669121    35.190276    66.118705
H     60.783470    35.482811    65.158784
H     60.358604    35.852778    66.814959
C     63.472600    23.914100    51.501600
O     64.656425    23.975876    51.105063
O     62.761316    22.886717    51.534159
H     63.014621    24.849950    51.854361
C     54.689600    39.545200    64.493000
N     54.840177    39.930420    63.228946
H     54.529660    40.592922    63.925200
H     55.036346    38.975382    63.492613
N     54.280701    40.417604    65.409849
H     54.476870    39.462566    65.673516
H     54.395049    40.710140    64.449928
N     54.947921    38.287576    64.840205
H     55.062270    38.580111    63.880284
H     54.637404    38.950078    65.536459
C     59.627900    26.154800    47.420900
O     60.811725    26.216576    47.024363
O     58.916616    25.127417    47.453459
H     59.169921    27.090650    47.773661
C     70.341100    31.416400    54.545000
O     71.524925    31.478176    54.148463
O     69.629816    30.389017    54.577559
H     69.883121    32.352250    54.897761
C     66.869400    37.563800    49.323800
O     68.053225    37.625576    48.927263
O     66.158116    36.536417    49.356359
H     66.411421    38.499650    49.676561
C     61.977100    32.378600    44.749500
O     63.160925    32.440376    44.352963
O     61.265816    31.351217    44.782059
H     61.519121    33.314450    45.102261
