88
shell7p2 K=10 +-1 net-free proxy+7.70
C     60.11193800    34.38396900    57.21013200
H     60.60719900    33.42993900    57.38460900
H     60.72469300    35.27181800    57.05919300
C     58.78057700    34.50353200    57.15195800
C     58.09218200    35.83426100    56.89335400
O     58.81246700    36.81821800    56.57878900
O     56.83954900    35.84891700    57.00961700
O     57.93461500    33.42640300    57.34599800
C     57.67693600    32.53773200    56.20080600
H     57.01901700    31.76376900    56.62407200
C     58.98648700    31.96184000    55.79317200
H     59.46393000    31.24298300    56.46049600
C     59.68310500    32.48267100    54.76815100
C     59.06432100    33.48370900    53.89317900
H     59.70236100    33.90454400    53.11096900
C     57.78125300    33.86565900    54.03153300
H     57.33218100    34.60235400    53.35662900
C     56.88979900    33.27109300    55.08618200
H     56.34719000    34.09064800    55.58588000
O     55.96286300    32.39770700    54.43466800
H     55.31084500    32.10952700    55.09277000
C     61.12320000    32.06212600    54.53420800
O     61.78496200    31.70232800    55.54338100
O     61.54107100    32.10651300    53.35273800
C     59.054100    27.901800    46.132800
O     60.237925    27.963576    45.736263
O     58.342816    26.874417    46.165359
H     58.596121    28.837650    46.485561
C     61.769400    34.593300    65.949300
N     61.919977    34.978520    64.685246
H     61.609460    35.641022    65.381500
H     62.116146    34.023482    64.948913
N     61.360501    35.465704    66.866149
H     61.556670    34.510666    67.129816
H     61.474849    35.758240    65.906228
N     62.027721    33.335676    66.296505
H     62.142070    33.628211    65.336584
H     61.717204    33.998178    66.992759
C     62.112100    23.466400    52.344600
O     63.295925    23.528176    51.948063
O     61.400816    22.439017    52.377159
H     61.654121    24.402250    52.697361
C     59.927600    28.626100    64.774800
N     60.078177    29.011320    63.510746
H     59.767660    29.673822    64.207000
H     60.274346    28.056282    63.774413
N     59.518701    29.498504    65.691649
H     59.714870    28.543466    65.955316
H     59.633049    29.791040    64.731728
N     60.185921    27.368476    65.122005
H     60.300270    27.661011    64.162084
H     59.875404    28.030978    65.818259
C     68.777100    31.784800    48.501700
O     69.960925    31.846576    48.105163
O     68.065816    30.757417    48.534259
H     68.319121    32.720650    48.854461
C     49.491300    32.887800    61.375200
N     49.641877    33.273020    60.111146
H     49.331360    33.935522    60.807400
H     49.838046    32.317982    60.374813
N     49.082401    33.760204    62.292049
H     49.278570    32.805166    62.555716
H     49.196749    34.052740    61.332128
N     49.749621    31.630176    61.722405
H     49.863970    31.922711    60.762484
H     49.439104    32.292678    62.418659
C     66.312300    25.921900    49.482300
O     67.496125    25.983676    49.085763
O     65.601016    24.894517    49.514859
H     65.854321    26.857750    49.835061
C     69.904500    28.819400    54.218700
O     71.088325    28.881176    53.822163
O     69.193216    27.792017    54.251259
H     69.446521    29.755250    54.571461
C     62.707200    30.904700    44.797400
O     63.891025    30.966476    44.400863
O     61.995916    29.877317    44.829959
H     62.249221    31.840550    45.150161
C     54.010200    30.153000    64.577900
N     54.160777    30.538220    63.313846
H     53.850260    31.200722    64.010100
H     54.356946    29.583182    63.577513
N     53.601301    31.025404    65.494749
H     53.797470    30.070366    65.758416
H     53.715649    31.317940    64.534828
N     54.268521    28.895376    64.925105
H     54.382870    29.187911    63.965184
H     53.958004    29.557878    65.621359
