88
-2 1 -839.3566866986591
C       54.87818020    35.12810567    62.67216970
H       55.73474848    35.59689452    62.18268911
H       54.55072490    35.52555495    63.63648387
C       54.19295363    34.13747274    62.09062431
C       52.94279675    33.50811080    62.66501540
O       53.01522939    32.84255248    63.74908496
O       51.89845841    33.62816285    61.99880681
O       54.48310336    33.54260140    60.89361114
C       55.73169392    32.83528180    60.76061206
H       55.49778144    31.99399304    60.07763946
C       56.16677914    32.25610390    62.06844201
H       55.39105052    32.00959516    62.79576726
C       57.44720930    31.92922279    62.31761616
C       58.48032244    32.24617704    61.31592496
H       59.48624071    31.84269762    61.44556349
C       58.17966382    32.98870347    60.23394018
H       58.94342286    33.21194939    59.48039299
C       56.81714587    33.62803938    60.02405549
H       56.88218143    34.65302543    60.45761473
O       56.39633371    33.66730879    58.69159432
H       57.08214882    34.03732804    58.11170137
C       57.79878653    31.24285273    63.60420650
O       56.92897468    30.56529770    64.24105012
O       59.00394273    31.37095814    63.99751043
C       59.05410000    27.90180000    46.13280000
O       60.23792500    27.96357600    45.73626300
O       58.34281600    26.87441700    46.16535900
H       58.59612100    28.83765000    46.48556100
C       61.76940000    34.59330000    65.94930000
N       61.91997700    34.97852000    64.68524600
H       61.60946000    35.64102200    65.38150000
H       62.11614600    34.02348200    64.94891300
N       61.36050100    35.46570400    66.86614900
H       61.55667000    34.51066600    67.12981600
H       61.47484900    35.75824000    65.90622800
N       62.02772100    33.33567600    66.29650500
H       62.14207000    33.62821100    65.33658400
H       61.71720400    33.99817800    66.99275900
C       62.11210000    23.46640000    52.34460000
O       63.29592500    23.52817600    51.94806300
O       61.40081600    22.43901700    52.37715900
H       61.65412100    24.40225000    52.69736100
C       59.92760000    28.62610000    64.77480000
N       60.07817700    29.01132000    63.51074600
H       59.76766000    29.67382200    64.20700000
H       60.27434600    28.05628200    63.77441300
N       59.51870100    29.49850400    65.69164900
H       59.71487000    28.54346600    65.95531600
H       59.63304900    29.79104000    64.73172800
N       60.18592100    27.36847600    65.12200500
H       60.30027000    27.66101100    64.16208400
H       59.87540400    28.03097800    65.81825900
C       68.77710000    31.78480000    48.50170000
O       69.96092500    31.84657600    48.10516300
O       68.06581600    30.75741700    48.53425900
H       68.31912100    32.72065000    48.85446100
C       49.49130000    32.88780000    61.37520000
N       49.64187700    33.27302000    60.11114600
H       49.33136000    33.93552200    60.80740000
H       49.83804600    32.31798200    60.37481300
N       49.08240100    33.76020400    62.29204900
H       49.27857000    32.80516600    62.55571600
H       49.19674900    34.05274000    61.33212800
N       49.74962100    31.63017600    61.72240500
H       49.86397000    31.92271100    60.76248400
H       49.43910400    32.29267800    62.41865900
C       66.31230000    25.92190000    49.48230000
O       67.49612500    25.98367600    49.08576300
O       65.60101600    24.89451700    49.51485900
H       65.85432100    26.85775000    49.83506100
C       69.90450000    28.81940000    54.21870000
O       71.08832500    28.88117600    53.82216300
O       69.19321600    27.79201700    54.25125900
H       69.44652100    29.75525000    54.57146100
C       62.70720000    30.90470000    44.79740000
O       63.89102500    30.96647600    44.40086300
O       61.99591600    29.87731700    44.82995900
H       62.24922100    31.84055000    45.15016100
C       54.01020000    30.15300000    64.57790000
N       54.16077700    30.53822000    63.31384600
H       53.85026000    31.20072200    64.01010000
H       54.35694600    29.58318200    63.57751300
N       53.60130100    31.02540400    65.49474900
H       53.79747000    30.07036600    65.75841600
H       53.71564900    31.31794000    64.53482800
N       54.26852100    28.89537600    64.92510500
H       54.38287000    29.18791100    63.96518400
H       53.95800400    29.55787800    65.62135900
