82
-2 1 -838.2814105658022
C       53.64326335    32.92712361    65.54284458
H       53.67082170    33.18075605    64.47969562
H       53.11781252    33.59491797    66.22576570
C       54.24475073    31.80006102    65.97799740
C       54.11002071    31.41246036    67.43769446
O       53.46877102    32.16800812    68.21703667
O       54.53191562    30.26620742    67.87199939
O       54.85376958    30.94463738    65.12052570
C       56.27033334    31.21380518    64.71213097
H       56.43002328    30.47898138    63.90685245
C       57.04259007    30.94341379    65.94881562
H       56.68304290    30.12572176    66.56238886
C       57.98747306    31.76278235    66.44603920
C       58.54883688    32.82483941    65.59920658
H       59.49188496    33.29556468    65.88343201
C       57.88983289    33.17029884    64.47857060
H       58.26086577    33.94505278    63.80077831
C       56.49341074    32.64165039    64.18600349
H       55.86140683    33.30745240    64.80467173
O       56.02486775    32.81626501    62.88448623
H       56.66354392    32.46824718    62.23944656
C       58.21967442    31.67746886    67.92936521
O       57.53372377    30.76047680    68.56481023
O       58.84746436    32.55117066    68.52617932
C       55.73300000    32.77150000    70.09050000
N       55.88357700    33.15672000    68.82644600
H       55.57306000    33.81922200    69.52270000
H       56.07974600    32.20168200    69.09011300
N       55.32410100    33.64390400    71.00734900
H       55.52027000    32.68886600    71.27101600
H       55.43844900    33.93644000    70.04742800
N       55.99132100    31.51387600    70.43770500
H       56.10567000    31.80641100    69.47778400
H       55.68080400    32.17637800    71.13395900
C       51.95560000    29.35290000    67.74710000
N       52.10617700    29.73812000    66.48304600
H       51.79566000    30.40062200    67.17930000
H       52.30234600    28.78308200    66.74671300
N       51.54670100    30.22530400    68.66394900
H       51.74287000    29.27026600    68.92761600
H       51.66104900    30.51784000    67.70402800
N       52.21392100    28.09527600    68.09430500
H       52.32827000    28.38781100    67.13438400
H       51.90340400    28.75777800    68.79055900
C       66.68130000    28.98960000    42.37150000
O       67.86512500    29.05137600    41.97496300
O       65.97001600    27.96221700    42.40405900
H       66.22332100    29.92545000    42.72426100
C       70.24600000    31.86160000    44.36020000
O       71.42982500    31.92337600    43.96366300
O       69.53471600    30.83421700    44.39275900
H       69.78802100    32.79745000    44.71296100
C       62.52960000    24.88590000    43.17370000
O       63.71342500    24.94767600    42.77716300
O       61.81831600    23.85851700    43.20625900
H       62.07162100    25.82175000    43.52646100
C       64.14630000    21.16730000    47.85290000
O       65.33012500    21.22907600    47.45636300
O       63.43501600    20.13991700    47.88545900
H       63.68832100    22.10315000    48.20566100
C       66.96520000    24.44620000    45.06990000
O       68.14902500    24.50797600    44.67336300
O       66.25391600    23.41881700    45.10245900
H       66.50722100    25.38205000    45.42266100
C       69.19040000    22.82840000    49.87250000
O       70.37422500    22.89017600    49.47596300
O       68.47911600    21.80101700    49.90505900
H       68.73242100    23.76425000    50.22526100
C       71.85490000    27.72720000    47.77060000
O       73.03872500    27.78897600    47.37406300
O       71.14361600    26.69981700    47.80315900
H       71.39692100    28.66305000    48.12336100
C       56.37030000    28.05720000    68.87920000
N       56.52087700    28.44242000    67.61514600
H       56.21036000    29.10492200    68.31140000
H       56.71704600    27.48738200    67.87881300
N       55.96140100    28.92960400    69.79604900
H       56.15757000    27.97456600    70.05971600
H       56.07574900    29.22214000    68.83612800
N       56.62862100    26.79957600    69.22640500
H       56.74297000    27.09211100    68.26648400
H       56.31810400    27.46207800    69.92265900
