82
shell11p0 TS-under-field
C     60.14190600    34.25017500    56.86750500
H     60.65410400    33.35229400    57.20242100
H     60.73860600    35.07435300    56.47491200
C     58.80287300    34.45194900    57.16141800
C     58.13069700    35.79868100    56.84307300
O     58.86276300    36.77666300    56.53446600
O     56.87734100    35.82963400    56.93983700
O     58.04533200    33.51170800    57.60013500
C     57.53567900    32.20862600    56.01945400
H     56.92805500    31.57263500    56.66681400
C     58.86068700    31.87524000    55.78984900
H     59.36035100    31.12725100    56.40326400
C     59.64119800    32.67145500    54.96010600
C     58.97535300    33.57937300    54.02371700
H     59.61208400    34.05213900    53.27111900
C     57.64453400    33.77154800    54.05277400
H     57.14874400    34.42947900    53.33266900
C     56.77153500    33.13738000    55.09626400
H     56.36648800    33.96180100    55.70835200
O     55.70405500    32.44082700    54.44502300
H     55.04194600    32.20048300    55.11214300
C     61.07068900    32.21901900    54.67969600
O     61.72429900    31.71851300    55.62834500
O     61.44865900    32.31879300    53.48933100
C     55.733000    32.771500    70.090500
N     55.883577    33.156720    68.826446
H     55.573060    33.819222    69.522700
H     56.079746    32.201682    69.090113
N     55.324101    33.643904    71.007349
H     55.520270    32.688866    71.271016
H     55.438449    33.936440    70.047428
N     55.991321    31.513876    70.437705
H     56.105670    31.806411    69.477784
H     55.680804    32.176378    71.133959
C     51.955600    29.352900    67.747100
N     52.106177    29.738120    66.483046
H     51.795660    30.400622    67.179300
H     52.302346    28.783082    66.746713
N     51.546701    30.225304    68.663949
H     51.742870    29.270266    68.927616
H     51.661049    30.517840    67.704028
N     52.213921    28.095276    68.094305
H     52.328270    28.387811    67.134384
H     51.903404    28.757778    68.790559
C     66.681300    28.989600    42.371500
O     67.865125    29.051376    41.974963
O     65.970016    27.962217    42.404059
H     66.223321    29.925450    42.724261
C     70.246000    31.861600    44.360200
O     71.429825    31.923376    43.963663
O     69.534716    30.834217    44.392759
H     69.788021    32.797450    44.712961
C     62.529600    24.885900    43.173700
O     63.713425    24.947676    42.777163
O     61.818316    23.858517    43.206259
H     62.071621    25.821750    43.526461
C     64.146300    21.167300    47.852900
O     65.330125    21.229076    47.456363
O     63.435016    20.139917    47.885459
H     63.688321    22.103150    48.205661
C     66.965200    24.446200    45.069900
O     68.149025    24.507976    44.673363
O     66.253916    23.418817    45.102459
H     66.507221    25.382050    45.422661
C     69.190400    22.828400    49.872500
O     70.374225    22.890176    49.475963
O     68.479116    21.801017    49.905059
H     68.732421    23.764250    50.225261
C     71.854900    27.727200    47.770600
O     73.038725    27.788976    47.374063
O     71.143616    26.699817    47.803159
H     71.396921    28.663050    48.123361
C     56.370300    28.057200    68.879200
N     56.520877    28.442420    67.615146
H     56.210360    29.104922    68.311400
H     56.717046    27.487382    67.878813
N     55.961401    28.929604    69.796049
H     56.157570    27.974566    70.059716
H     56.075749    29.222140    68.836128
N     56.628621    26.799576    69.226405
H     56.742970    27.092111    68.266484
H     56.318104    27.462078    69.922659
