100
shell8p4 TS-under-field
C     60.14190600    34.25017500    56.86750500
H     60.65410400    33.35229400    57.20242100
H     60.73860600    35.07435300    56.47491200
C     58.80287300    34.45194900    57.16141800
C     58.13069700    35.79868100    56.84307300
O     58.86276300    36.77666300    56.53446600
O     56.87734100    35.82963400    56.93983700
O     58.04533200    33.51170800    57.60013500
C     57.53567900    32.20862600    56.01945400
H     56.92805500    31.57263500    56.66681400
C     58.86068700    31.87524000    55.78984900
H     59.36035100    31.12725100    56.40326400
C     59.64119800    32.67145500    54.96010600
C     58.97535300    33.57937300    54.02371700
H     59.61208400    34.05213900    53.27111900
C     57.64453400    33.77154800    54.05277400
H     57.14874400    34.42947900    53.33266900
C     56.77153500    33.13738000    55.09626400
H     56.36648800    33.96180100    55.70835200
O     55.70405500    32.44082700    54.44502300
H     55.04194600    32.20048300    55.11214300
C     61.07068900    32.21901900    54.67969600
O     61.72429900    31.71851300    55.62834500
O     61.44865900    32.31879300    53.48933100
C     54.890400    41.218300    65.117500
N     55.040977    41.603520    63.853446
H     54.730460    42.266022    64.549700
H     55.237146    40.648482    64.117113
N     54.481501    42.090704    66.034349
H     54.677670    41.135666    66.298016
H     54.595849    42.383240    65.074428
N     55.148721    39.960676    65.464705
H     55.263070    40.253211    64.504784
H     54.838204    40.623178    66.160959
C     59.500900    39.335500    66.260000
N     59.651477    39.720720    64.995946
H     59.340960    40.383222    65.692200
H     59.847646    38.765682    65.259613
N     59.092001    40.207904    67.176849
H     59.288170    39.252866    67.440516
H     59.206349    40.500440    66.216928
N     59.759221    38.077876    66.607205
H     59.873570    38.370411    65.647284
H     59.448704    38.740378    67.303459
C     69.748400    37.570200    52.110000
O     70.932225    37.631976    51.713463
O     69.037116    36.542817    52.142559
H     69.290421    38.506050    52.462761
C     49.755600    39.757900    62.745800
N     49.906177    40.143120    61.481746
H     49.595660    40.805622    62.178000
H     50.102346    39.188082    61.745413
N     49.346701    40.630304    63.662649
H     49.542870    39.675266    63.926316
H     49.461049    40.922840    62.702728
N     50.013921    38.500276    63.093005
H     50.128270    38.792811    62.133084
H     49.703404    39.162778    63.789259
C     54.958000    29.394400    66.157200
N     55.108577    29.779620    64.893146
H     54.798060    30.442122    65.589400
H     55.304746    28.824582    65.156813
N     54.549101    30.266804    67.074049
H     54.745270    29.311766    67.337716
H     54.663449    30.559340    66.114128
N     55.216321    28.136776    66.504405
H     55.330670    28.429311    65.544484
H     54.905804    28.799278    67.200659
C     69.454200    25.804300    53.359100
O     70.638025    25.866076    52.962563
O     68.742916    24.776917    53.391659
H     68.996221    26.740150    53.711861
C     65.789100    29.533000    44.767700
O     66.972925    29.594776    44.371163
O     65.077816    28.505617    44.800259
H     65.331121    30.468850    45.120461
C     47.658900    31.158300    61.156300
N     47.809477    31.543520    59.892246
H     47.498960    32.206022    60.588500
H     48.005646    30.588482    60.155913
N     47.250001    32.030704    62.073149
H     47.446170    31.075666    62.336816
H     47.364349    32.323240    61.113228
N     47.917221    29.900676    61.503505
H     48.031570    30.193211    60.543584
H     47.606704    30.563178    62.199759
C     51.956300    33.687200    65.492400
N     52.106877    34.072420    64.228346
H     51.796360    34.734922    64.924600
H     52.303046    33.117382    64.492013
N     51.547401    34.559604    66.409249
H     51.743570    33.604566    66.672916
H     51.661749    34.852140    65.449328
N     52.214621    32.429576    65.839605
H     52.328970    32.722111    64.879684
H     51.904104    33.092078    66.535859
C     71.008000    32.332000    50.398700
O     72.191825    32.393776    50.002163
O     70.296716    31.304617    50.431259
H     70.550021    33.267850    50.751461
