100
shell2p0 TS-under-field
C     60.14190600    34.25017500    56.86750500
H     60.65410400    33.35229400    57.20242100
H     60.73860600    35.07435300    56.47491200
C     58.80287300    34.45194900    57.16141800
C     58.13069700    35.79868100    56.84307300
O     58.86276300    36.77666300    56.53446600
O     56.87734100    35.82963400    56.93983700
O     58.04533200    33.51170800    57.60013500
C     57.53567900    32.20862600    56.01945400
H     56.92805500    31.57263500    56.66681400
C     58.86068700    31.87524000    55.78984900
H     59.36035100    31.12725100    56.40326400
C     59.64119800    32.67145500    54.96010600
C     58.97535300    33.57937300    54.02371700
H     59.61208400    34.05213900    53.27111900
C     57.64453400    33.77154800    54.05277400
H     57.14874400    34.42947900    53.33266900
C     56.77153500    33.13738000    55.09626400
H     56.36648800    33.96180100    55.70835200
O     55.70405500    32.44082700    54.44502300
H     55.04194600    32.20048300    55.11214300
C     61.07068900    32.21901900    54.67969600
O     61.72429900    31.71851300    55.62834500
O     61.44865900    32.31879300    53.48933100
C     61.346900    37.082000    59.617400
N     61.497477    37.467220    58.353346
H     61.186960    38.129722    59.049600
H     61.693646    36.512182    58.617013
N     60.938001    37.954404    60.534249
H     61.134170    36.999366    60.797916
H     61.052349    38.246940    59.574328
N     61.605221    35.824376    59.964605
H     61.719570    36.116911    59.004684
H     61.294704    36.486878    60.660859
C     58.887200    30.255300    51.892100
O     60.071025    30.317076    51.495563
O     58.175916    29.227917    51.924659
H     58.429221    31.191150    52.244861
C     63.810500    29.095600    54.347900
O     64.994325    29.157376    53.951363
O     63.099216    28.068217    54.380459
H     63.352521    30.031450    54.700661
C     53.217400    31.678700    51.945700
N     53.367977    32.063920    50.681646
H     53.057460    32.726422    51.377900
H     53.564146    31.108882    50.945313
N     52.808501    32.551104    52.862549
H     53.004670    31.596066    53.126216
H     52.922849    32.843640    51.902628
N     53.475721    30.421076    52.292905
H     53.590070    30.713611    51.332984
H     53.165204    31.083578    52.989159
C     53.859400    36.723300    55.359300
N     54.009977    37.108520    54.095246
H     53.699460    37.771022    54.791500
H     54.206146    36.153482    54.358913
N     53.450501    37.595704    56.276149
H     53.646670    36.640666    56.539816
H     53.564849    37.888240    55.316228
N     54.117721    35.465676    55.706505
H     54.232070    35.758211    54.746584
H     53.807204    36.128178    56.402759
C     54.663400    29.533700    57.724300
N     54.813977    29.918920    56.460246
H     54.503460    30.581422    57.156500
H     55.010146    28.963882    56.723913
N     54.254501    30.406104    58.641149
H     54.450670    29.451066    58.904816
H     54.368849    30.698640    57.681228
N     54.921721    28.276076    58.071505
H     55.036070    28.568611    57.111584
H     54.611204    28.938578    58.767759
C     64.474900    32.896900    51.586400
O     65.658725    32.958676    51.189863
O     63.763616    31.869517    51.618959
H     64.016921    33.832750    51.939161
C     55.337900    33.734700    59.831800
N     55.488477    34.119920    58.567746
H     55.177960    34.782422    59.264000
H     55.684646    33.164882    58.831413
N     54.929001    34.607104    60.748649
H     55.125170    33.652066    61.012316
H     55.043349    34.899640    59.788728
N     55.596221    32.477076    60.179005
H     55.710570    32.769611    59.219084
H     55.285704    33.139578    60.875259
C     59.644300    31.497300    60.261900
N     59.794877    31.882520    58.997846
H     59.484360    32.545022    59.694100
H     59.991046    30.927482    59.261513
N     59.235401    32.369704    61.178749
H     59.431570    31.414666    61.442416
H     59.349749    32.662240    60.218828
N     59.902621    30.239676    60.609105
H     60.016970    30.532211    59.649184
H     59.592104    30.902178    61.305359
C     58.917600    34.607900    50.093900
O     60.101425    34.669676    49.697363
O     58.206316    33.580517    50.126459
H     58.459621    35.543750    50.446661
