38
-2 1 -837.3815782830395
C       55.35714208    35.84061716    57.76189324
H       54.83186859    36.07320855    56.83230431
H       56.44414728    35.91699764    57.78960668
C       54.69026501    35.48570095    58.86806127
C       55.39603754    35.19793703    60.19159570
O       56.66901650    35.05105965    60.13204655
O       54.71347565    35.11764301    61.22139162
O       53.31353053    35.46036224    58.88427028
C       52.64184204    34.19694635    58.70248641
H       51.61981830    34.38210737    59.06815032
C       53.29381901    33.11811781    59.51925380
H       53.23138859    33.19635584    60.60342640
C       54.08443142    32.17649883    58.95991889
C       54.24620432    32.11119221    57.50266569
H       54.97176713    31.39413023    57.11475678
C       53.54896666    32.91668017    56.68228641
H       53.68989469    32.86972264    55.59724895
C       52.48562217    33.84565881    57.20960014
H       52.50261350    34.80109198    56.65171021
O       51.19810093    33.23032856    57.09665176
H       51.12654719    32.83615983    56.21505328
C       54.97603424    31.32002985    59.84069379
O       54.87935259    31.45014461    61.09626889
O       55.86349927    30.62577514    59.26683522
C       57.49940000    32.31300000    60.99950000
N       57.64997700    32.69822000    59.73544600
H       57.33946000    33.36072200    60.43170000
H       57.84614600    31.74318200    59.99911300
N       57.09050100    33.18540400    61.91634900
H       57.28667000    32.23036600    62.18001600
H       57.20484900    33.47794000    60.95642800
N       57.75772100    31.05537600    61.34670500
H       57.87207000    31.34791100    60.38678400
H       57.44720400    31.71787800    62.04295900
C       64.30860000    30.09970000    52.53550000
O       65.49242500    30.16147600    52.13896300
O       63.59731600    29.07231700    52.56805900
H       63.85062100    31.03555000    52.88826100
