88
shell8p6 TS-under-field
C     60.14190600    34.25017500    56.86750500
H     60.65410400    33.35229400    57.20242100
H     60.73860600    35.07435300    56.47491200
C     58.80287300    34.45194900    57.16141800
C     58.13069700    35.79868100    56.84307300
O     58.86276300    36.77666300    56.53446600
O     56.87734100    35.82963400    56.93983700
O     58.04533200    33.51170800    57.60013500
C     57.53567900    32.20862600    56.01945400
H     56.92805500    31.57263500    56.66681400
C     58.86068700    31.87524000    55.78984900
H     59.36035100    31.12725100    56.40326400
C     59.64119800    32.67145500    54.96010600
C     58.97535300    33.57937300    54.02371700
H     59.61208400    34.05213900    53.27111900
C     57.64453400    33.77154800    54.05277400
H     57.14874400    34.42947900    53.33266900
C     56.77153500    33.13738000    55.09626400
H     56.36648800    33.96180100    55.70835200
O     55.70405500    32.44082700    54.44502300
H     55.04194600    32.20048300    55.11214300
C     61.07068900    32.21901900    54.67969600
O     61.72429900    31.71851300    55.62834500
O     61.44865900    32.31879300    53.48933100
C     61.249900    27.550700    65.370700
N     61.400477    27.935920    64.106646
H     61.089960    28.598422    64.802900
H     61.596646    26.980882    64.370313
N     60.841001    28.423104    66.287549
H     61.037170    27.468066    66.551216
H     60.955349    28.715640    65.327628
N     61.508221    26.293076    65.717905
H     61.622570    26.585611    64.757984
H     61.197704    26.955578    66.414159
C     66.703700    27.242900    46.135800
O     67.887525    27.304676    45.739263
O     65.992416    26.215517    46.168359
H     66.245721    28.178750    46.488561
C     68.420800    36.088800    47.093200
O     69.604625    36.150576    46.696663
O     67.709516    35.061417    47.125759
H     67.962821    37.024650    47.445961
C     70.072500    28.710100    49.102400
O     71.256325    28.771876    48.705863
O     69.361216    27.682717    49.134959
H     69.614521    29.645950    49.455161
C     66.427700    22.764900    54.560400
O     67.611525    22.826676    54.163863
O     65.716416    21.737517    54.592959
H     65.969721    23.700750    54.913161
C     60.066100    32.733700    43.351000
O     61.249925    32.795476    42.954463
O     59.354816    31.706317    43.383559
H     59.608121    33.669550    43.703761
C     50.059200    33.814200    64.239900
N     50.209777    34.199420    62.975846
H     49.899260    34.861922    63.672100
H     50.405946    33.244382    63.239513
N     49.650301    34.686604    65.156749
H     49.846470    33.731566    65.420416
H     49.764649    34.979140    64.196828
N     50.317521    32.556576    64.587105
H     50.431870    32.849111    63.627184
H     50.007004    33.219078    65.283359
C     59.636600    32.417400    67.823100
N     59.787177    32.802620    66.559046
H     59.476660    33.465122    67.255300
H     59.983346    31.847582    66.822713
N     59.227701    33.289804    68.739949
H     59.423870    32.334766    69.003616
H     59.342049    33.582340    67.780028
N     59.894921    31.159776    68.170305
H     60.009270    31.452311    67.210384
H     59.584404    31.822278    68.866559
C     58.764100    25.404900    46.299300
O     59.947925    25.466676    45.902763
O     58.052816    24.377517    46.331859
H     58.306121    26.340750    46.652061
C     52.452900    26.901100    64.025300
N     52.603477    27.286320    62.761246
H     52.292960    27.948822    63.457500
H     52.799646    26.331282    63.024913
N     52.044001    27.773504    64.942149
H     52.240170    26.818466    65.205816
H     52.158349    28.066040    63.982228
N     52.711221    25.643476    64.372505
H     52.825570    25.936011    63.412584
H     52.400704    26.305978    65.068759
