72
-2 1 -840.5606098178165
C       62.34204292    34.14662395    59.10844190
H       62.67515340    33.59417690    58.15661876
H       63.15975308    34.52503239    59.72543794
C       61.10708306    34.33435299    59.35788155
C       57.44385110    37.36168931    59.55290838
O       58.02354795    38.35088913    59.53078659
O       56.85190472    36.34258694    59.57615645
O       59.90154410    34.37016394    59.59354206
C       56.70476527    32.22193256    57.43526678
H       55.58278108    32.35085711    57.40406397
C       57.12174650    30.92347220    57.67739146
H       56.49920954    30.23733258    58.24891251
C       58.26408548    30.47792405    57.04312470
C       59.03174737    31.33284613    56.22196190
H       59.96564544    30.98803708    55.76869867
C       58.62616354    32.66473706    56.03639382
H       59.24348324    33.32550499    55.42939811
C       57.47150767    33.12633958    56.65015187
H       57.12130655    34.14623581    56.50989904
O       55.31291124    30.99273965    54.17263094
H       56.08513726    31.43955893    53.80386871
C       58.67581107    29.12603345    57.51275016
O       59.65122514    29.14137679    58.29479820
O       57.94625911    28.13891765    57.22196610
C       53.21740000    31.67870000    51.94570000
N       53.36797700    32.06392000    50.68164600
H       53.05746000    32.72642200    51.37790000
H       53.56414600    31.10888200    50.94531300
N       52.80850100    32.55110400    52.86254900
H       53.00467000    31.59606600    53.12621600
H       52.92284900    32.84364000    51.90262800
N       53.47572100    30.42107600    52.29290500
H       53.59007000    30.71361100    51.33298400
H       53.16520400    31.08357800    52.98915900
C       64.30860000    30.09970000    52.53550000
O       65.49242500    30.16147600    52.13896300
O       63.59731600    29.07231700    52.56805900
H       63.85062100    31.03555000    52.88826100
C       64.14040000    34.07180000    56.80490000
O       65.32422500    34.13357600    56.40836300
O       63.42911600    33.04441700    56.83745900
H       63.68242100    35.00765000    57.15766100
C       55.33790000    33.73470000    59.83180000
N       55.48847700    34.11992000    58.56774600
H       55.17796000    34.78242200    59.26400000
H       55.68464600    33.16488200    58.83141300
N       54.92900100    34.60710400    60.74864900
H       55.12517000    33.65206600    61.01231600
H       55.04334900    34.89964000    59.78872800
N       55.59622100    32.47707600    60.17900500
H       55.71057000    32.76961100    59.21908400
H       55.28570400    33.13957800    60.87525900
C       59.64430000    31.49730000    60.26190000
N       59.79487700    31.88252000    58.99784600
H       59.48436000    32.54502200    59.69410000
H       59.99104600    30.92748200    59.26151300
N       59.23540100    32.36970400    61.17874900
H       59.43157000    31.41466600    61.44241600
H       59.34974900    32.66224000    60.21882800
N       59.90262100    30.23967600    60.60910500
H       60.01697000    30.53221100    59.64918400
H       59.59210400    30.90217800    61.30535900
C       56.24140000    28.33150000    54.94860000
N       56.39197700    28.71672000    53.68454600
H       56.08146000    29.37922200    54.38080000
H       56.58814600    27.76168200    53.94821300
N       55.83250100    29.20390400    55.86544900
H       56.02867000    28.24886600    56.12911600
H       55.94684900    29.49644000    54.90552800
N       56.49972100    27.07387600    55.29580500
H       56.61407000    27.36641100    54.33588400
H       56.18920400    27.73637800    55.99205900
