72
K6_apot mu100 surrsized
C     60.111938    34.383969    57.210132
H     60.607199    33.429939    57.384609
H     60.724693    35.271818    57.059193
C     58.780577    34.503532    57.151958
C     58.092182    35.834261    56.893354
O     58.812467    36.818218    56.578789
O     56.839549    35.848917    57.009617
O     57.934615    33.426403    57.345998
C     57.676936    32.537732    56.200806
H     57.019017    31.763769    56.624072
C     58.986487    31.961840    55.793172
H     59.463930    31.242983    56.460496
C     59.683105    32.482671    54.768151
C     59.064321    33.483709    53.893179
H     59.702361    33.904544    53.110969
C     57.781253    33.865659    54.031533
H     57.332181    34.602354    53.356629
C     56.889799    33.271093    55.086182
H     56.347190    34.090648    55.585880
O     55.962863    32.397707    54.434668
H     55.310845    32.109527    55.092770
C     61.123200    32.062126    54.534208
O     61.784962    31.702328    55.543381
O     61.541071    32.106513    53.352738
C     53.217400    31.678700    51.945700
N     53.367977    32.063920    50.681646
H     53.057460    32.726422    51.377900
H     53.564146    31.108882    50.945313
N     52.808501    32.551104    52.862549
H     53.004670    31.596066    53.126216
H     52.922849    32.843640    51.902628
N     53.475721    30.421076    52.292905
H     53.590070    30.713611    51.332984
H     53.165204    31.083578    52.989159
C     64.308600    30.099700    52.535500
O     65.492425    30.161476    52.138963
O     63.597316    29.072317    52.568059
H     63.850621    31.035550    52.888261
C     64.140400    34.071800    56.804900
O     65.324225    34.133576    56.408363
O     63.429116    33.044417    56.837459
H     63.682421    35.007650    57.157661
C     55.337900    33.734700    59.831800
N     55.488477    34.119920    58.567746
H     55.177960    34.782422    59.264000
H     55.684646    33.164882    58.831413
N     54.929001    34.607104    60.748649
H     55.125170    33.652066    61.012316
H     55.043349    34.899640    59.788728
N     55.596221    32.477076    60.179005
H     55.710570    32.769611    59.219084
H     55.285704    33.139578    60.875259
C     59.644300    31.497300    60.261900
N     59.794877    31.882520    58.997846
H     59.484360    32.545022    59.694100
H     59.991046    30.927482    59.261513
N     59.235401    32.369704    61.178749
H     59.431570    31.414666    61.442416
H     59.349749    32.662240    60.218828
N     59.902621    30.239676    60.609105
H     60.016970    30.532211    59.649184
H     59.592104    30.902178    61.305359
C     56.241400    28.331500    54.948600
N     56.391977    28.716720    53.684546
H     56.081460    29.379222    54.380800
H     56.588146    27.761682    53.948213
N     55.832501    29.203904    55.865449
H     56.028670    28.248866    56.129116
H     55.946849    29.496440    54.905528
N     56.499721    27.073876    55.295805
H     56.614070    27.366411    54.335884
H     56.189204    27.736378    55.992059