94
-2 1 -840.039582468634
C       53.25360386    36.32684559    62.91111925
H       53.02251723    35.79970143    61.98318455
H       53.34300417    37.41340341    62.90081169
C       53.41118396    35.67753240    64.07151822
C       53.75009521    36.38358788    65.37799420
O       53.91987409    37.63467749    65.37523095
O       53.93326420    35.63696016    66.38012003
O       53.21852543    34.32327924    64.16192635
C       54.29250870    33.38581174    64.12623318
H       53.99847743    32.60062086    64.85494972
C       55.67421390    33.85640382    64.52277711
H       55.79100728    34.74792965    65.15239929
C       56.76374839    33.10316809    64.26304157
C       56.63105299    31.90747143    63.42387091
H       57.48928541    31.24178801    63.32191767
C       55.51322435    31.71707314    62.70167627
H       55.44597286    30.90574812    61.96931449
C       54.36856232    32.70597887    62.75559947
H       54.55869703    33.48817734    61.99114446
O       53.11127520    32.08017340    62.49106521
H       53.05194053    31.99120380    61.52431377
C       58.11404715    33.45295658    64.88368952
O       58.33208237    34.68876109    65.09401595
O       58.88291130    32.50490324    65.16765109
C       60.27700000    29.62600000    66.13440000
N       60.42757700    30.01122000    64.87034600
H       60.11706000    30.67372200    65.56660000
H       60.62374600    29.05618200    65.13401300
N       59.86810100    30.49840400    67.05124900
H       60.06427000    29.54336600    67.31491600
H       59.98244900    30.79094000    66.09132800
N       60.53532100    28.36837600    66.48160500
H       60.64967000    28.66091100    65.52168400
H       60.22480400    29.03087800    67.17785900
C       62.94820000    27.76670000    45.11400000
O       64.13202500    27.82847600    44.71746300
O       62.23691600    26.73931700    45.14655900
H       62.49022100    28.70255000    45.46676100
C       67.30530000    24.26000000    53.85750000
O       68.48912500    24.32177600    53.46096300
O       66.59401600    23.23261700    53.89005900
H       66.84732100    25.19585000    54.21026100
C       50.82190000    29.92490000    63.20860000
N       50.97247700    30.31012000    61.94454600
H       50.66196000    30.97262200    62.64080000
H       51.16864600    29.35508200    62.20821300
N       50.41300100    30.79730400    64.12544900
H       50.60917000    29.84226600    64.38911600
H       50.52734900    31.08984000    63.16552800
N       51.08022100    28.66727600    63.55580500
H       51.19457000    28.95981100    62.59588400
H       50.76970400    29.32977800    64.25205900
C       68.67820000    32.88280000    47.25830000
O       69.86202500    32.94457600    46.86176300
O       67.96691600    31.85541700    47.29085900
H       68.22022100    33.81865000    47.61106100
C       56.93800000    24.70740000    49.08780000
O       58.12182500    24.76917600    48.69126300
O       56.22671600    23.68001700    49.12035900
H       56.48002100    25.64325000    49.44056100
C       56.45730000    36.50990000    66.67330000
N       56.60787700    36.89512000    65.40924600
H       56.29736000    37.55762200    66.10550000
H       56.80404600    35.94008200    65.67291300
N       56.04840100    37.38230400    67.59014900
H       56.24457000    36.42726600    67.85381600
H       56.16274900    37.67484000    66.63022800
N       56.71562100    35.25227600    67.02050500
H       56.82997000    35.54481100    66.06058400
H       56.40510400    35.91477800    67.71675900
C       65.44310000    24.71700000    49.01050000
O       66.62692500    24.77877600    48.61396300
O       64.73181600    23.68961700    49.04305900
H       64.98512100    25.65285000    49.36326100
C       65.25810000    38.96820000    64.02820000
N       65.40867700    39.35342000    62.76414600
H       65.09816000    40.01592200    63.46040000
H       65.60484600    38.39838200    63.02781300
N       64.84920100    39.84060400    64.94504900
H       65.04537000    38.88556600    65.20871600
H       64.96354900    40.13314000    63.98512800
N       65.51642100    37.71057600    64.37540500
H       65.63077000    38.00311100    63.41548400
H       65.20590400    38.37307800    65.07165900
C       52.70460000    41.29290000    63.48730000
N       52.85517700    41.67812000    62.22324600
H       52.54466000    42.34062200    62.91950000
H       53.05134600    40.72308200    62.48691300
N       52.29570100    42.16530400    64.40414900
H       52.49187000    41.21026600    64.66781600
H       52.41004900    42.45784000    63.44422800
N       52.96292100    40.03527600    63.83450500
H       53.07727000    40.32781100    62.87458400
H       52.65240400    40.69777800    64.53075900
