1544
design s3: 24 substrate + 1520 catalytic
C     60.11193800    34.38396900    57.21013200
H     60.60719900    33.42993900    57.38460900
H     60.72469300    35.27181800    57.05919300
C     58.78057700    34.50353200    57.15195800
C     58.09218200    35.83426100    56.89335400
O     58.81246700    36.81821800    56.57878900
O     56.83954900    35.84891700    57.00961700
O     57.93461500    33.42640300    57.34599800
C     57.67693600    32.53773200    56.20080600
H     57.01901700    31.76376900    56.62407200
C     58.98648700    31.96184000    55.79317200
H     59.46393000    31.24298300    56.46049600
C     59.68310500    32.48267100    54.76815100
C     59.06432100    33.48370900    53.89317900
H     59.70236100    33.90454400    53.11096900
C     57.78125300    33.86565900    54.03153300
H     57.33218100    34.60235400    53.35662900
C     56.88979900    33.27109300    55.08618200
H     56.34719000    34.09064800    55.58588000
O     55.96286300    32.39770700    54.43466800
H     55.31084500    32.10952700    55.09277000
C     61.12320000    32.06212600    54.53420800
O     61.78496200    31.70232800    55.54338100
O     61.54107100    32.10651300    53.35273800
C      60.41080000    26.54300000    51.21100000
C      60.41080000    26.54300000    51.91100000
C      60.41080000    26.54300000    52.61100000
C      61.11080000    26.54300000    50.51100000
C      61.11080000    26.54300000    51.21100000
C      61.11080000    26.54300000    51.91100000
C      61.11080000    26.54300000    52.61100000
C      61.11080000    26.54300000    53.31100000
C      61.81080000    26.54300000    50.51100000
C      61.81080000    26.54300000    51.21100000
C      61.81080000    26.54300000    51.91100000
C      61.81080000    26.54300000    52.61100000
C      61.81080000    26.54300000    53.31100000
C      62.51080000    26.54300000    50.51100000
C      62.51080000    26.54300000    51.21100000
C      62.51080000    26.54300000    51.91100000
C      62.51080000    26.54300000    52.61100000
C      62.51080000    26.54300000    53.31100000
C      62.51080000    26.54300000    54.01100000
C      63.21080000    26.54300000    50.51100000
C      63.21080000    26.54300000    51.21100000
C      63.21080000    26.54300000    51.91100000
C      63.21080000    26.54300000    52.61100000
C      63.21080000    26.54300000    53.31100000
C      63.21080000    26.54300000    54.01100000
C      63.91080000    26.54300000    51.21100000
C      63.91080000    26.54300000    51.91100000
C      63.91080000    26.54300000    52.61100000
C      63.91080000    26.54300000    53.31100000
C      64.61080000    26.54300000    51.91100000
C      64.61080000    26.54300000    52.61100000
C      59.71080000    27.24300000    50.51100000
C      59.71080000    27.24300000    51.21100000
C      59.71080000    27.24300000    51.91100000
C      59.71080000    27.24300000    52.61100000
C      59.71080000    27.24300000    53.31100000
C      60.41080000    27.24300000    49.81100000
C      60.41080000    27.24300000    50.51100000
C      60.41080000    27.24300000    51.21100000
C      60.41080000    27.24300000    51.91100000
C      60.41080000    27.24300000    52.61100000
C      60.41080000    27.24300000    53.31100000
C      60.41080000    27.24300000    54.01100000
C      61.11080000    27.24300000    49.81100000
C      61.11080000    27.24300000    50.51100000
C      61.11080000    27.24300000    51.21100000
C      61.11080000    27.24300000    51.91100000
C      61.11080000    27.24300000    52.61100000
C      61.11080000    27.24300000    53.31100000
C      61.11080000    27.24300000    54.01100000
C      61.81080000    27.24300000    49.11100000
C      61.81080000    27.24300000    49.81100000
C      61.81080000    27.24300000    50.51100000
C      61.81080000    27.24300000    51.21100000
C      61.81080000    27.24300000    51.91100000
C      61.81080000    27.24300000    52.61100000
C      61.81080000    27.24300000    53.31100000
C      61.81080000    27.24300000    54.01100000
C      61.81080000    27.24300000    54.71100000
C      62.51080000    27.24300000    49.11100000
C      62.51080000    27.24300000    49.81100000
C      62.51080000    27.24300000    50.51100000
C      62.51080000    27.24300000    51.21100000
C      62.51080000    27.24300000    51.91100000
C      62.51080000    27.24300000    52.61100000
C      62.51080000    27.24300000    53.31100000
C      62.51080000    27.24300000    54.01100000
C      62.51080000    27.24300000    54.71100000
C      63.21080000    27.24300000    49.11100000
C      63.21080000    27.24300000    49.81100000
C      63.21080000    27.24300000    50.51100000
C      63.21080000    27.24300000    51.21100000
C      63.21080000    27.24300000    51.91100000
C      63.21080000    27.24300000    52.61100000
C      63.21080000    27.24300000    53.31100000
C      63.21080000    27.24300000    54.01100000
C      63.21080000    27.24300000    54.71100000
C      63.91080000    27.24300000    49.81100000
C      63.91080000    27.24300000    50.51100000
C      63.91080000    27.24300000    51.21100000
C      63.91080000    27.24300000    51.91100000
C      63.91080000    27.24300000    52.61100000
C      63.91080000    27.24300000    53.31100000
C      63.91080000    27.24300000    54.01100000
C      63.91080000    27.24300000    54.71100000
C      64.61080000    27.24300000    50.51100000
C      64.61080000    27.24300000    51.21100000
C      64.61080000    27.24300000    51.91100000
C      64.61080000    27.24300000    52.61100000
C      64.61080000    27.24300000    53.31100000
C      64.61080000    27.24300000    54.01100000
C      65.31080000    27.24300000    51.21100000
C      65.31080000    27.24300000    51.91100000
C      65.31080000    27.24300000    52.61100000
C      65.31080000    27.24300000    53.31100000
C      59.01080000    27.94300000    50.51100000
C      59.01080000    27.94300000    51.21100000
C      59.01080000    27.94300000    51.91100000
C      59.01080000    27.94300000    52.61100000
C      59.01080000    27.94300000    53.31100000
C      59.71080000    27.94300000    49.81100000
C      59.71080000    27.94300000    50.51100000
C      59.71080000    27.94300000    51.21100000
C      59.71080000    27.94300000    51.91100000
C      59.71080000    27.94300000    52.61100000
C      59.71080000    27.94300000    53.31100000
C      59.71080000    27.94300000    54.01100000
C      60.41080000    27.94300000    49.11100000
C      60.41080000    27.94300000    49.81100000
C      60.41080000    27.94300000    50.51100000
C      60.41080000    27.94300000    51.21100000
C      60.41080000    27.94300000    51.91100000
C      60.41080000    27.94300000    52.61100000
C      60.41080000    27.94300000    53.31100000
C      60.41080000    27.94300000    54.01100000
C      60.41080000    27.94300000    54.71100000
C      61.11080000    27.94300000    49.11100000
C      61.11080000    27.94300000    49.81100000
C      61.11080000    27.94300000    50.51100000
C      61.11080000    27.94300000    51.21100000
C      61.11080000    27.94300000    51.91100000
C      61.11080000    27.94300000    52.61100000
C      61.11080000    27.94300000    53.31100000
C      61.11080000    27.94300000    54.01100000
C      61.11080000    27.94300000    54.71100000
C      61.81080000    27.94300000    48.41100000
C      61.81080000    27.94300000    49.11100000
C      61.81080000    27.94300000    49.81100000
C      61.81080000    27.94300000    50.51100000
C      61.81080000    27.94300000    51.21100000
C      61.81080000    27.94300000    51.91100000
C      61.81080000    27.94300000    52.61100000
C      61.81080000    27.94300000    53.31100000
C      61.81080000    27.94300000    54.01100000
C      61.81080000    27.94300000    54.71100000
C      61.81080000    27.94300000    55.41100000
C      62.51080000    27.94300000    48.41100000
C      62.51080000    27.94300000    49.11100000
C      62.51080000    27.94300000    49.81100000
C      62.51080000    27.94300000    50.51100000
C      62.51080000    27.94300000    51.21100000
C      62.51080000    27.94300000    51.91100000
C      62.51080000    27.94300000    52.61100000
C      62.51080000    27.94300000    53.31100000
C      62.51080000    27.94300000    54.01100000
C      62.51080000    27.94300000    54.71100000
C      62.51080000    27.94300000    55.41100000
C      63.21080000    27.94300000    48.41100000
C      63.21080000    27.94300000    49.11100000
C      63.21080000    27.94300000    49.81100000
C      63.21080000    27.94300000    50.51100000
C      63.21080000    27.94300000    51.21100000
C      63.21080000    27.94300000    51.91100000
C      63.21080000    27.94300000    52.61100000
C      63.21080000    27.94300000    53.31100000
C      63.21080000    27.94300000    54.01100000
C      63.21080000    27.94300000    54.71100000
C      63.21080000    27.94300000    55.41100000
C      63.91080000    27.94300000    49.11100000
C      63.91080000    27.94300000    49.81100000
C      63.91080000    27.94300000    50.51100000
C      63.91080000    27.94300000    51.21100000
C      63.91080000    27.94300000    51.91100000
C      63.91080000    27.94300000    52.61100000
C      63.91080000    27.94300000    53.31100000
C      63.91080000    27.94300000    54.01100000
C      63.91080000    27.94300000    54.71100000
C      63.91080000    27.94300000    55.41100000
C      64.61080000    27.94300000    49.11100000
C      64.61080000    27.94300000    49.81100000
C      64.61080000    27.94300000    50.51100000
C      64.61080000    27.94300000    51.21100000
C      64.61080000    27.94300000    51.91100000
C      64.61080000    27.94300000    52.61100000
C      64.61080000    27.94300000    53.31100000
C      64.61080000    27.94300000    54.01100000
C      64.61080000    27.94300000    54.71100000
C      64.61080000    27.94300000    55.41100000
C      65.31080000    27.94300000    49.81100000
C      65.31080000    27.94300000    50.51100000
C      65.31080000    27.94300000    51.21100000
C      65.31080000    27.94300000    51.91100000
C      65.31080000    27.94300000    52.61100000
C      65.31080000    27.94300000    53.31100000
C      65.31080000    27.94300000    54.01100000
C      65.31080000    27.94300000    54.71100000
C      66.01080000    27.94300000    51.21100000
C      66.01080000    27.94300000    51.91100000
C      66.01080000    27.94300000    52.61100000
C      66.01080000    27.94300000    53.31100000
C      66.01080000    27.94300000    54.01100000
C      55.51080000    28.64300000    58.91100000
C      55.51080000    28.64300000    59.61100000
C      55.51080000    28.64300000    60.31100000
C      55.51080000    28.64300000    61.01100000
C      56.21080000    28.64300000    58.21100000
C      56.21080000    28.64300000    58.91100000
C      56.21080000    28.64300000    59.61100000
C      56.21080000    28.64300000    60.31100000
C      56.21080000    28.64300000    61.01100000
C      56.21080000    28.64300000    61.71100000
C      56.91080000    28.64300000    58.21100000
C      56.91080000    28.64300000    58.91100000
C      56.91080000    28.64300000    59.61100000
C      56.91080000    28.64300000    60.31100000
C      56.91080000    28.64300000    61.01100000
C      56.91080000    28.64300000    61.71100000
C      57.61080000    28.64300000    58.21100000
C      57.61080000    28.64300000    58.91100000
C      57.61080000    28.64300000    59.61100000
C      57.61080000    28.64300000    60.31100000
C      57.61080000    28.64300000    61.01100000
C      57.61080000    28.64300000    61.71100000
C      58.31080000    28.64300000    50.51100000
C      58.31080000    28.64300000    51.21100000
C      58.31080000    28.64300000    51.91100000
C      58.31080000    28.64300000    52.61100000
C      58.31080000    28.64300000    53.31100000
C      58.31080000    28.64300000    58.21100000
C      58.31080000    28.64300000    58.91100000
C      58.31080000    28.64300000    59.61100000
C      58.31080000    28.64300000    60.31100000
C      58.31080000    28.64300000    61.01100000
C      58.31080000    28.64300000    61.71100000
C      59.01080000    28.64300000    49.81100000
C      59.01080000    28.64300000    50.51100000
C      59.01080000    28.64300000    51.21100000
C      59.01080000    28.64300000    51.91100000
C      59.01080000    28.64300000    52.61100000
C      59.01080000    28.64300000    53.31100000
C      59.01080000    28.64300000    58.21100000
C      59.01080000    28.64300000    58.91100000
C      59.01080000    28.64300000    59.61100000
C      59.01080000    28.64300000    60.31100000
C      59.01080000    28.64300000    61.01100000
C      59.01080000    28.64300000    61.71100000
C      59.71080000    28.64300000    49.11100000
C      59.71080000    28.64300000    49.81100000
C      59.71080000    28.64300000    50.51100000
C      59.71080000    28.64300000    51.21100000
C      59.71080000    28.64300000    51.91100000
C      59.71080000    28.64300000    52.61100000
C      59.71080000    28.64300000    53.31100000
C      59.71080000    28.64300000    58.91100000
C      59.71080000    28.64300000    59.61100000
C      59.71080000    28.64300000    60.31100000
C      59.71080000    28.64300000    61.01100000
C      60.41080000    28.64300000    48.41100000
C      60.41080000    28.64300000    49.11100000
C      60.41080000    28.64300000    49.81100000
C      60.41080000    28.64300000    50.51100000
C      60.41080000    28.64300000    51.21100000
C      60.41080000    28.64300000    51.91100000
C      60.41080000    28.64300000    52.61100000
C      60.41080000    28.64300000    60.31100000
C      61.11080000    28.64300000    48.41100000
C      61.11080000    28.64300000    49.11100000
C      61.11080000    28.64300000    49.81100000
C      61.11080000    28.64300000    50.51100000
C      61.11080000    28.64300000    51.21100000
C      61.11080000    28.64300000    51.91100000
C      61.81080000    28.64300000    48.41100000
C      61.81080000    28.64300000    49.11100000
C      61.81080000    28.64300000    49.81100000
C      61.81080000    28.64300000    50.51100000
C      61.81080000    28.64300000    51.21100000
C      61.81080000    28.64300000    51.91100000
C      62.51080000    28.64300000    48.41100000
C      62.51080000    28.64300000    49.11100000
C      62.51080000    28.64300000    49.81100000
C      62.51080000    28.64300000    50.51100000
C      62.51080000    28.64300000    51.21100000
C      62.51080000    28.64300000    51.91100000
C      62.51080000    28.64300000    52.61100000
C      62.51080000    28.64300000    53.31100000
C      63.21080000    28.64300000    48.41100000
C      63.21080000    28.64300000    49.11100000
C      63.21080000    28.64300000    49.81100000
C      63.21080000    28.64300000    50.51100000
C      63.21080000    28.64300000    51.21100000
C      63.21080000    28.64300000    51.91100000
C      63.21080000    28.64300000    52.61100000
C      63.21080000    28.64300000    53.31100000
C      63.21080000    28.64300000    54.01100000
C      63.91080000    28.64300000    48.41100000
C      63.91080000    28.64300000    49.11100000
C      63.91080000    28.64300000    49.81100000
C      63.91080000    28.64300000    50.51100000
C      63.91080000    28.64300000    51.21100000
C      63.91080000    28.64300000    51.91100000
C      63.91080000    28.64300000    52.61100000
C      63.91080000    28.64300000    53.31100000
C      63.91080000    28.64300000    54.01100000
C      63.91080000    28.64300000    54.71100000
C      63.91080000    28.64300000    55.41100000
C      63.91080000    28.64300000    56.11100000
C      64.61080000    28.64300000    49.11100000
C      64.61080000    28.64300000    49.81100000
C      64.61080000    28.64300000    50.51100000
C      64.61080000    28.64300000    51.21100000
C      64.61080000    28.64300000    51.91100000
C      64.61080000    28.64300000    52.61100000
C      64.61080000    28.64300000    53.31100000
C      64.61080000    28.64300000    54.01100000
C      64.61080000    28.64300000    54.71100000
C      64.61080000    28.64300000    55.41100000
C      65.31080000    28.64300000    49.11100000
C      65.31080000    28.64300000    49.81100000
C      65.31080000    28.64300000    50.51100000
C      65.31080000    28.64300000    51.21100000
C      65.31080000    28.64300000    51.91100000
C      65.31080000    28.64300000    52.61100000
C      65.31080000    28.64300000    53.31100000
C      65.31080000    28.64300000    54.01100000
C      65.31080000    28.64300000    54.71100000
C      65.31080000    28.64300000    55.41100000
C      66.01080000    28.64300000    49.81100000
C      66.01080000    28.64300000    50.51100000
C      66.01080000    28.64300000    51.21100000
C      66.01080000    28.64300000    51.91100000
C      66.01080000    28.64300000    52.61100000
C      66.01080000    28.64300000    53.31100000
C      66.01080000    28.64300000    54.01100000
C      66.01080000    28.64300000    54.71100000
C      66.71080000    28.64300000    51.91100000
C      66.71080000    28.64300000    52.61100000
C      66.71080000    28.64300000    53.31100000
C      54.81080000    29.34300000    56.11100000
C      54.81080000    29.34300000    58.21100000
C      54.81080000    29.34300000    58.91100000
C      54.81080000    29.34300000    59.61100000
C      54.81080000    29.34300000    60.31100000
C      54.81080000    29.34300000    61.01100000
C      55.51080000    29.34300000    56.81100000
C      55.51080000    29.34300000    57.51100000
C      55.51080000    29.34300000    58.21100000
C      55.51080000    29.34300000    58.91100000
C      55.51080000    29.34300000    59.61100000
C      55.51080000    29.34300000    60.31100000
C      55.51080000    29.34300000    61.01100000
C      55.51080000    29.34300000    61.71100000
C      56.21080000    29.34300000    58.21100000
C      56.21080000    29.34300000    58.91100000
C      56.21080000    29.34300000    59.61100000
C      56.21080000    29.34300000    60.31100000
C      56.21080000    29.34300000    61.01100000
C      56.21080000    29.34300000    61.71100000
C      56.21080000    29.34300000    62.41100000
C      56.91080000    29.34300000    58.21100000
C      56.91080000    29.34300000    58.91100000
C      56.91080000    29.34300000    59.61100000
C      56.91080000    29.34300000    60.31100000
C      56.91080000    29.34300000    61.01100000
C      56.91080000    29.34300000    61.71100000
C      56.91080000    29.34300000    62.41100000
C      57.61080000    29.34300000    51.21100000
C      57.61080000    29.34300000    51.91100000
C      57.61080000    29.34300000    52.61100000
C      57.61080000    29.34300000    53.31100000
C      57.61080000    29.34300000    58.91100000
C      57.61080000    29.34300000    59.61100000
C      57.61080000    29.34300000    60.31100000
C      57.61080000    29.34300000    61.01100000
C      57.61080000    29.34300000    61.71100000
C      57.61080000    29.34300000    62.41100000
C      57.61080000    29.34300000    63.11100000
C      58.31080000    29.34300000    49.81100000
C      58.31080000    29.34300000    50.51100000
C      58.31080000    29.34300000    51.21100000
C      58.31080000    29.34300000    51.91100000
C      58.31080000    29.34300000    52.61100000
C      58.31080000    29.34300000    58.91100000
C      58.31080000    29.34300000    59.61100000
C      58.31080000    29.34300000    60.31100000
C      58.31080000    29.34300000    61.01100000
C      58.31080000    29.34300000    61.71100000
C      58.31080000    29.34300000    62.41100000
C      58.31080000    29.34300000    63.11100000
C      59.01080000    29.34300000    49.11100000
C      59.01080000    29.34300000    49.81100000
C      59.01080000    29.34300000    50.51100000
C      59.01080000    29.34300000    51.21100000
C      59.01080000    29.34300000    51.91100000
C      59.01080000    29.34300000    52.61100000
C      59.01080000    29.34300000    58.91100000
C      59.01080000    29.34300000    59.61100000
C      59.01080000    29.34300000    60.31100000
C      59.01080000    29.34300000    61.01100000
C      59.01080000    29.34300000    61.71100000
C      59.01080000    29.34300000    62.41100000
C      59.71080000    29.34300000    48.41100000
C      59.71080000    29.34300000    49.11100000
C      59.71080000    29.34300000    49.81100000
C      59.71080000    29.34300000    50.51100000
C      59.71080000    29.34300000    51.21100000
C      59.71080000    29.34300000    51.91100000
C      59.71080000    29.34300000    58.91100000
C      59.71080000    29.34300000    59.61100000
C      59.71080000    29.34300000    60.31100000
C      59.71080000    29.34300000    61.01100000
C      59.71080000    29.34300000    61.71100000
C      59.71080000    29.34300000    62.41100000
C      60.41080000    29.34300000    48.41100000
C      60.41080000    29.34300000    49.11100000
C      60.41080000    29.34300000    49.81100000
C      60.41080000    29.34300000    50.51100000
C      60.41080000    29.34300000    51.21100000
C      60.41080000    29.34300000    58.21100000
C      60.41080000    29.34300000    58.91100000
C      60.41080000    29.34300000    59.61100000
C      60.41080000    29.34300000    60.31100000
C      60.41080000    29.34300000    61.01100000
C      60.41080000    29.34300000    61.71100000
C      61.11080000    29.34300000    47.71100000
C      61.11080000    29.34300000    48.41100000
C      61.11080000    29.34300000    49.11100000
C      61.11080000    29.34300000    49.81100000
C      61.11080000    29.34300000    50.51100000
C      61.11080000    29.34300000    58.91100000
C      61.11080000    29.34300000    59.61100000
C      61.11080000    29.34300000    60.31100000
C      61.11080000    29.34300000    61.01100000
C      61.81080000    29.34300000    47.71100000
C      61.81080000    29.34300000    48.41100000
C      61.81080000    29.34300000    49.11100000
C      61.81080000    29.34300000    49.81100000
C      61.81080000    29.34300000    50.51100000
C      62.51080000    29.34300000    47.71100000
C      62.51080000    29.34300000    48.41100000
C      62.51080000    29.34300000    49.11100000
C      62.51080000    29.34300000    49.81100000
C      62.51080000    29.34300000    50.51100000
C      62.51080000    29.34300000    51.21100000
C      63.21080000    29.34300000    47.71100000
C      63.21080000    29.34300000    48.41100000
C      63.21080000    29.34300000    49.11100000
C      63.21080000    29.34300000    49.81100000
C      63.21080000    29.34300000    50.51100000
C      63.21080000    29.34300000    51.21100000
C      63.91080000    29.34300000    48.41100000
C      63.91080000    29.34300000    49.11100000
C      63.91080000    29.34300000    49.81100000
C      63.91080000    29.34300000    50.51100000
C      63.91080000    29.34300000    51.21100000
C      63.91080000    29.34300000    51.91100000
C      63.91080000    29.34300000    52.61100000
C      63.91080000    29.34300000    53.31100000
C      64.61080000    29.34300000    48.41100000
C      64.61080000    29.34300000    49.11100000
C      64.61080000    29.34300000    49.81100000
C      64.61080000    29.34300000    50.51100000
C      64.61080000    29.34300000    51.21100000
C      64.61080000    29.34300000    51.91100000
C      64.61080000    29.34300000    52.61100000
C      64.61080000    29.34300000    53.31100000
C      64.61080000    29.34300000    54.01100000
C      64.61080000    29.34300000    54.71100000
C      64.61080000    29.34300000    55.41100000
C      64.61080000    29.34300000    56.11100000
C      65.31080000    29.34300000    49.11100000
C      65.31080000    29.34300000    49.81100000
C      65.31080000    29.34300000    50.51100000
C      65.31080000    29.34300000    51.21100000
C      65.31080000    29.34300000    51.91100000
C      65.31080000    29.34300000    52.61100000
C      65.31080000    29.34300000    53.31100000
C      65.31080000    29.34300000    54.01100000
C      65.31080000    29.34300000    54.71100000
C      65.31080000    29.34300000    55.41100000
C      66.01080000    29.34300000    49.81100000
C      66.01080000    29.34300000    50.51100000
C      66.01080000    29.34300000    51.21100000
C      66.01080000    29.34300000    51.91100000
C      66.01080000    29.34300000    52.61100000
C      66.01080000    29.34300000    53.31100000
C      66.01080000    29.34300000    54.01100000
C      66.01080000    29.34300000    54.71100000
C      66.01080000    29.34300000    55.41100000
C      66.71080000    29.34300000    50.51100000
C      66.71080000    29.34300000    51.21100000
C      66.71080000    29.34300000    51.91100000
C      66.71080000    29.34300000    52.61100000
C      66.71080000    29.34300000    53.31100000
C      66.71080000    29.34300000    54.01100000
C      54.11080000    30.04300000    58.91100000
C      54.11080000    30.04300000    59.61100000
C      54.11080000    30.04300000    60.31100000
C      54.11080000    30.04300000    61.01100000
C      54.81080000    30.04300000    57.51100000
C      54.81080000    30.04300000    58.21100000
C      54.81080000    30.04300000    58.91100000
C      54.81080000    30.04300000    59.61100000
C      54.81080000    30.04300000    60.31100000
C      54.81080000    30.04300000    61.01100000
C      54.81080000    30.04300000    61.71100000
C      54.81080000    30.04300000    62.41100000
C      55.51080000    30.04300000    58.21100000
C      55.51080000    30.04300000    58.91100000
C      55.51080000    30.04300000    59.61100000
C      55.51080000    30.04300000    60.31100000
C      55.51080000    30.04300000    61.01100000
C      55.51080000    30.04300000    61.71100000
C      55.51080000    30.04300000    62.41100000
C      56.21080000    30.04300000    58.91100000
C      56.21080000    30.04300000    59.61100000
C      56.21080000    30.04300000    60.31100000
C      56.21080000    30.04300000    61.01100000
C      56.21080000    30.04300000    61.71100000
C      56.21080000    30.04300000    62.41100000
C      56.21080000    30.04300000    63.11100000
C      56.91080000    30.04300000    51.91100000
C      56.91080000    30.04300000    59.61100000
C      56.91080000    30.04300000    60.31100000
C      56.91080000    30.04300000    61.01100000
C      56.91080000    30.04300000    61.71100000
C      56.91080000    30.04300000    62.41100000
C      56.91080000    30.04300000    63.11100000
C      57.61080000    30.04300000    50.51100000
C      57.61080000    30.04300000    51.21100000
C      57.61080000    30.04300000    51.91100000
C      57.61080000    30.04300000    59.61100000
C      57.61080000    30.04300000    60.31100000
C      57.61080000    30.04300000    61.01100000
C      57.61080000    30.04300000    61.71100000
C      57.61080000    30.04300000    62.41100000
C      57.61080000    30.04300000    63.11100000
C      58.31080000    30.04300000    49.81100000
C      58.31080000    30.04300000    50.51100000
C      58.31080000    30.04300000    51.21100000
C      58.31080000    30.04300000    51.91100000
C      58.31080000    30.04300000    59.61100000
C      58.31080000    30.04300000    60.31100000
C      58.31080000    30.04300000    61.01100000
C      58.31080000    30.04300000    61.71100000
C      58.31080000    30.04300000    62.41100000
C      58.31080000    30.04300000    63.11100000
C      59.01080000    30.04300000    49.11100000
C      59.01080000    30.04300000    49.81100000
C      59.01080000    30.04300000    50.51100000
C      59.01080000    30.04300000    51.21100000
C      59.01080000    30.04300000    59.61100000
C      59.01080000    30.04300000    60.31100000
C      59.01080000    30.04300000    61.01100000
C      59.01080000    30.04300000    61.71100000
C      59.01080000    30.04300000    62.41100000
C      59.01080000    30.04300000    63.11100000
C      59.71080000    30.04300000    48.41100000
C      59.71080000    30.04300000    49.11100000
C      59.71080000    30.04300000    49.81100000
C      59.71080000    30.04300000    50.51100000
C      59.71080000    30.04300000    59.61100000
C      59.71080000    30.04300000    60.31100000
C      59.71080000    30.04300000    61.01100000
C      59.71080000    30.04300000    61.71100000
C      59.71080000    30.04300000    62.41100000
C      59.71080000    30.04300000    63.11100000
C      60.41080000    30.04300000    47.71100000
C      60.41080000    30.04300000    48.41100000
C      60.41080000    30.04300000    49.11100000
C      60.41080000    30.04300000    49.81100000
C      60.41080000    30.04300000    50.51100000
C      60.41080000    30.04300000    58.91100000
C      60.41080000    30.04300000    59.61100000
C      60.41080000    30.04300000    60.31100000
C      60.41080000    30.04300000    61.01100000
C      60.41080000    30.04300000    61.71100000
C      60.41080000    30.04300000    62.41100000
C      61.11080000    30.04300000    47.71100000
C      61.11080000    30.04300000    48.41100000
C      61.11080000    30.04300000    49.11100000
C      61.11080000    30.04300000    49.81100000
C      61.11080000    30.04300000    58.91100000
C      61.11080000    30.04300000    59.61100000
C      61.11080000    30.04300000    60.31100000
C      61.11080000    30.04300000    61.01100000
C      61.11080000    30.04300000    61.71100000
C      61.81080000    30.04300000    47.71100000
C      61.81080000    30.04300000    48.41100000
C      61.81080000    30.04300000    49.11100000
C      61.81080000    30.04300000    49.81100000
C      61.81080000    30.04300000    58.91100000
C      61.81080000    30.04300000    59.61100000
C      61.81080000    30.04300000    60.31100000
C      61.81080000    30.04300000    61.01100000
C      62.51080000    30.04300000    47.71100000
C      62.51080000    30.04300000    48.41100000
C      62.51080000    30.04300000    49.11100000
C      62.51080000    30.04300000    49.81100000
C      62.51080000    30.04300000    50.51100000
C      63.21080000    30.04300000    47.71100000
C      63.21080000    30.04300000    48.41100000
C      63.21080000    30.04300000    49.11100000
C      63.21080000    30.04300000    49.81100000
C      63.21080000    30.04300000    50.51100000
C      63.91080000    30.04300000    47.71100000
C      63.91080000    30.04300000    48.41100000
C      63.91080000    30.04300000    49.11100000
C      63.91080000    30.04300000    49.81100000
C      63.91080000    30.04300000    50.51100000
C      63.91080000    30.04300000    51.21100000
C      64.61080000    30.04300000    48.41100000
C      64.61080000    30.04300000    49.11100000
C      64.61080000    30.04300000    49.81100000
C      64.61080000    30.04300000    50.51100000
C      64.61080000    30.04300000    51.21100000
C      64.61080000    30.04300000    51.91100000
C      64.61080000    30.04300000    52.61100000
C      64.61080000    30.04300000    53.31100000
C      64.61080000    30.04300000    54.01100000
C      65.31080000    30.04300000    49.11100000
C      65.31080000    30.04300000    49.81100000
C      65.31080000    30.04300000    50.51100000
C      65.31080000    30.04300000    51.21100000
C      65.31080000    30.04300000    51.91100000
C      65.31080000    30.04300000    52.61100000
C      65.31080000    30.04300000    53.31100000
C      65.31080000    30.04300000    54.01100000
C      65.31080000    30.04300000    54.71100000
C      65.31080000    30.04300000    55.41100000
C      65.31080000    30.04300000    56.11100000
C      66.01080000    30.04300000    49.11100000
C      66.01080000    30.04300000    49.81100000
C      66.01080000    30.04300000    50.51100000
C      66.01080000    30.04300000    51.21100000
C      66.01080000    30.04300000    51.91100000
C      66.01080000    30.04300000    52.61100000
C      66.01080000    30.04300000    53.31100000
C      66.01080000    30.04300000    54.01100000
C      66.01080000    30.04300000    54.71100000
C      66.01080000    30.04300000    55.41100000
C      66.71080000    30.04300000    50.51100000
C      66.71080000    30.04300000    51.21100000
C      66.71080000    30.04300000    51.91100000
C      66.71080000    30.04300000    52.61100000
C      66.71080000    30.04300000    53.31100000
C      66.71080000    30.04300000    54.01100000
C      66.71080000    30.04300000    54.71100000
C      53.41080000    30.74300000    59.61100000
C      53.41080000    30.74300000    60.31100000
C      54.11080000    30.74300000    58.21100000
C      54.11080000    30.74300000    58.91100000
C      54.11080000    30.74300000    59.61100000
C      54.11080000    30.74300000    60.31100000
C      54.11080000    30.74300000    61.01100000
C      54.11080000    30.74300000    61.71100000
C      54.81080000    30.74300000    58.21100000
C      54.81080000    30.74300000    58.91100000
C      54.81080000    30.74300000    59.61100000
C      54.81080000    30.74300000    60.31100000
C      54.81080000    30.74300000    61.01100000
C      54.81080000    30.74300000    61.71100000
C      54.81080000    30.74300000    62.41100000
C      55.51080000    30.74300000    58.91100000
C      55.51080000    30.74300000    59.61100000
C      55.51080000    30.74300000    60.31100000
C      55.51080000    30.74300000    61.01100000
C      55.51080000    30.74300000    61.71100000
C      55.51080000    30.74300000    62.41100000
C      55.51080000    30.74300000    63.11100000
C      56.21080000    30.74300000    59.61100000
C      56.21080000    30.74300000    60.31100000
C      56.21080000    30.74300000    61.01100000
C      56.21080000    30.74300000    61.71100000
C      56.21080000    30.74300000    62.41100000
C      56.21080000    30.74300000    63.11100000
C      56.21080000    30.74300000    63.81100000
C      56.91080000    30.74300000    51.21100000
C      56.91080000    30.74300000    59.61100000
C      56.91080000    30.74300000    60.31100000
C      56.91080000    30.74300000    61.01100000
C      56.91080000    30.74300000    61.71100000
C      56.91080000    30.74300000    62.41100000
C      56.91080000    30.74300000    63.11100000
C      56.91080000    30.74300000    63.81100000
C      57.61080000    30.74300000    50.51100000
C      57.61080000    30.74300000    51.21100000
C      57.61080000    30.74300000    60.31100000
C      57.61080000    30.74300000    61.01100000
C      57.61080000    30.74300000    61.71100000
C      57.61080000    30.74300000    62.41100000
C      57.61080000    30.74300000    63.11100000
C      57.61080000    30.74300000    63.81100000
C      58.31080000    30.74300000    49.11100000
C      58.31080000    30.74300000    49.81100000
C      58.31080000    30.74300000    50.51100000
C      58.31080000    30.74300000    51.21100000
C      58.31080000    30.74300000    60.31100000
C      58.31080000    30.74300000    61.01100000
C      58.31080000    30.74300000    61.71100000
C      58.31080000    30.74300000    62.41100000
C      58.31080000    30.74300000    63.11100000
C      58.31080000    30.74300000    63.81100000
C      59.01080000    30.74300000    48.41100000
C      59.01080000    30.74300000    49.11100000
C      59.01080000    30.74300000    49.81100000
C      59.01080000    30.74300000    50.51100000
C      59.01080000    30.74300000    51.21100000
C      59.01080000    30.74300000    59.61100000
C      59.01080000    30.74300000    60.31100000
C      59.01080000    30.74300000    61.01100000
C      59.01080000    30.74300000    61.71100000
C      59.01080000    30.74300000    62.41100000
C      59.01080000    30.74300000    63.11100000
C      59.01080000    30.74300000    63.81100000
C      59.71080000    30.74300000    48.41100000
C      59.71080000    30.74300000    49.11100000
C      59.71080000    30.74300000    49.81100000
C      59.71080000    30.74300000    50.51100000
C      59.71080000    30.74300000    59.61100000
C      59.71080000    30.74300000    60.31100000
C      59.71080000    30.74300000    61.01100000
C      59.71080000    30.74300000    61.71100000
C      59.71080000    30.74300000    62.41100000
C      59.71080000    30.74300000    63.11100000
C      59.71080000    30.74300000    63.81100000
C      60.41080000    30.74300000    47.71100000
C      60.41080000    30.74300000    48.41100000
C      60.41080000    30.74300000    49.11100000
C      60.41080000    30.74300000    49.81100000
C      60.41080000    30.74300000    59.61100000
C      60.41080000    30.74300000    60.31100000
C      60.41080000    30.74300000    61.01100000
C      60.41080000    30.74300000    61.71100000
C      60.41080000    30.74300000    62.41100000
C      60.41080000    30.74300000    63.11100000
C      61.11080000    30.74300000    47.71100000
C      61.11080000    30.74300000    48.41100000
C      61.11080000    30.74300000    49.11100000
C      61.11080000    30.74300000    49.81100000
C      61.11080000    30.74300000    59.61100000
C      61.11080000    30.74300000    60.31100000
C      61.11080000    30.74300000    61.01100000
C      61.11080000    30.74300000    61.71100000
C      61.11080000    30.74300000    62.41100000
C      61.81080000    30.74300000    47.71100000
C      61.81080000    30.74300000    48.41100000
C      61.81080000    30.74300000    49.11100000
C      61.81080000    30.74300000    49.81100000
C      61.81080000    30.74300000    59.61100000
C      61.81080000    30.74300000    60.31100000
C      61.81080000    30.74300000    61.01100000
C      61.81080000    30.74300000    61.71100000
C      62.51080000    30.74300000    47.71100000
C      62.51080000    30.74300000    48.41100000
C      62.51080000    30.74300000    49.11100000
C      62.51080000    30.74300000    49.81100000
C      62.51080000    30.74300000    58.91100000
C      62.51080000    30.74300000    59.61100000
C      62.51080000    30.74300000    60.31100000
C      63.21080000    30.74300000    47.71100000
C      63.21080000    30.74300000    48.41100000
C      63.21080000    30.74300000    49.11100000
C      63.21080000    30.74300000    49.81100000
C      63.91080000    30.74300000    47.71100000
C      63.91080000    30.74300000    48.41100000
C      63.91080000    30.74300000    49.11100000
C      63.91080000    30.74300000    49.81100000
C      63.91080000    30.74300000    50.51100000
C      64.61080000    30.74300000    48.41100000
C      64.61080000    30.74300000    49.11100000
C      64.61080000    30.74300000    49.81100000
C      64.61080000    30.74300000    50.51100000
C      64.61080000    30.74300000    51.21100000
C      64.61080000    30.74300000    51.91100000
C      65.31080000    30.74300000    48.41100000
C      65.31080000    30.74300000    49.11100000
C      65.31080000    30.74300000    49.81100000
C      65.31080000    30.74300000    50.51100000
C      65.31080000    30.74300000    51.21100000
C      65.31080000    30.74300000    51.91100000
C      65.31080000    30.74300000    52.61100000
C      65.31080000    30.74300000    53.31100000
C      65.31080000    30.74300000    54.01100000
C      65.31080000    30.74300000    54.71100000
C      65.31080000    30.74300000    55.41100000
C      65.31080000    30.74300000    56.11100000
C      66.01080000    30.74300000    49.11100000
C      66.01080000    30.74300000    49.81100000
C      66.01080000    30.74300000    50.51100000
C      66.01080000    30.74300000    51.21100000
C      66.01080000    30.74300000    51.91100000
C      66.01080000    30.74300000    52.61100000
C      66.01080000    30.74300000    53.31100000
C      66.01080000    30.74300000    54.01100000
C      66.01080000    30.74300000    54.71100000
C      66.01080000    30.74300000    55.41100000
C      66.71080000    30.74300000    50.51100000
C      66.71080000    30.74300000    51.21100000
C      66.71080000    30.74300000    51.91100000
C      66.71080000    30.74300000    52.61100000
C      66.71080000    30.74300000    53.31100000
C      66.71080000    30.74300000    54.01100000
C      66.71080000    30.74300000    54.71100000
C      67.41080000    30.74300000    52.61100000
C      53.41080000    31.44300000    58.91100000
C      53.41080000    31.44300000    59.61100000
C      53.41080000    31.44300000    60.31100000
C      53.41080000    31.44300000    61.01100000
C      53.41080000    31.44300000    61.71100000
C      54.11080000    31.44300000    58.21100000
C      54.11080000    31.44300000    58.91100000
C      54.11080000    31.44300000    59.61100000
C      54.11080000    31.44300000    60.31100000
C      54.11080000    31.44300000    61.01100000
C      54.11080000    31.44300000    61.71100000
C      54.11080000    31.44300000    62.41100000
C      54.81080000    31.44300000    58.91100000
C      54.81080000    31.44300000    59.61100000
C      54.81080000    31.44300000    60.31100000
C      54.81080000    31.44300000    61.01100000
C      54.81080000    31.44300000    61.71100000
C      54.81080000    31.44300000    62.41100000
C      54.81080000    31.44300000    63.11100000
C      55.51080000    31.44300000    59.61100000
C      55.51080000    31.44300000    60.31100000
C      55.51080000    31.44300000    61.01100000
C      55.51080000    31.44300000    61.71100000
C      55.51080000    31.44300000    62.41100000
C      55.51080000    31.44300000    63.11100000
C      55.51080000    31.44300000    63.81100000
C      56.21080000    31.44300000    60.31100000
C      56.21080000    31.44300000    61.01100000
C      56.21080000    31.44300000    61.71100000
C      56.21080000    31.44300000    62.41100000
C      56.21080000    31.44300000    63.11100000
C      56.21080000    31.44300000    63.81100000
C      56.91080000    31.44300000    60.31100000
C      56.91080000    31.44300000    61.01100000
C      56.91080000    31.44300000    61.71100000
C      56.91080000    31.44300000    62.41100000
C      56.91080000    31.44300000    63.11100000
C      56.91080000    31.44300000    63.81100000
C      57.61080000    31.44300000    50.51100000
C      57.61080000    31.44300000    60.31100000
C      57.61080000    31.44300000    61.01100000
C      57.61080000    31.44300000    61.71100000
C      57.61080000    31.44300000    62.41100000
C      57.61080000    31.44300000    63.11100000
C      57.61080000    31.44300000    63.81100000
C      58.31080000    31.44300000    49.11100000
C      58.31080000    31.44300000    49.81100000
C      58.31080000    31.44300000    50.51100000
C      58.31080000    31.44300000    60.31100000
C      58.31080000    31.44300000    61.01100000
C      58.31080000    31.44300000    61.71100000
C      58.31080000    31.44300000    62.41100000
C      58.31080000    31.44300000    63.11100000
C      58.31080000    31.44300000    63.81100000
C      59.01080000    31.44300000    49.11100000
C      59.01080000    31.44300000    49.81100000
C      59.01080000    31.44300000    50.51100000
C      59.01080000    31.44300000    60.31100000
C      59.01080000    31.44300000    61.01100000
C      59.01080000    31.44300000    61.71100000
C      59.01080000    31.44300000    62.41100000
C      59.01080000    31.44300000    63.11100000
C      59.01080000    31.44300000    63.81100000
C      59.71080000    31.44300000    48.41100000
C      59.71080000    31.44300000    49.11100000
C      59.71080000    31.44300000    49.81100000
C      59.71080000    31.44300000    60.31100000
C      59.71080000    31.44300000    61.01100000
C      59.71080000    31.44300000    61.71100000
C      59.71080000    31.44300000    62.41100000
C      59.71080000    31.44300000    63.11100000
C      59.71080000    31.44300000    63.81100000
C      60.41080000    31.44300000    47.71100000
C      60.41080000    31.44300000    48.41100000
C      60.41080000    31.44300000    49.11100000
C      60.41080000    31.44300000    49.81100000
C      60.41080000    31.44300000    60.31100000
C      60.41080000    31.44300000    61.01100000
C      60.41080000    31.44300000    61.71100000
C      60.41080000    31.44300000    62.41100000
C      60.41080000    31.44300000    63.11100000
C      61.11080000    31.44300000    47.71100000
C      61.11080000    31.44300000    48.41100000
C      61.11080000    31.44300000    49.11100000
C      61.11080000    31.44300000    49.81100000
C      61.11080000    31.44300000    59.61100000
C      61.11080000    31.44300000    60.31100000
C      61.11080000    31.44300000    61.01100000
C      61.11080000    31.44300000    61.71100000
C      61.11080000    31.44300000    62.41100000
C      61.11080000    31.44300000    63.11100000
C      61.81080000    31.44300000    47.71100000
C      61.81080000    31.44300000    48.41100000
C      61.81080000    31.44300000    49.11100000
C      61.81080000    31.44300000    49.81100000
C      61.81080000    31.44300000    59.61100000
C      61.81080000    31.44300000    60.31100000
C      61.81080000    31.44300000    61.01100000
C      61.81080000    31.44300000    61.71100000
C      61.81080000    31.44300000    62.41100000
C      62.51080000    31.44300000    47.71100000
C      62.51080000    31.44300000    48.41100000
C      62.51080000    31.44300000    49.11100000
C      62.51080000    31.44300000    49.81100000
C      62.51080000    31.44300000    59.61100000
C      62.51080000    31.44300000    60.31100000
C      62.51080000    31.44300000    61.01100000
C      63.21080000    31.44300000    47.71100000
C      63.21080000    31.44300000    48.41100000
C      63.21080000    31.44300000    49.11100000
C      63.21080000    31.44300000    49.81100000
C      63.91080000    31.44300000    47.71100000
C      63.91080000    31.44300000    48.41100000
C      63.91080000    31.44300000    49.11100000
C      63.91080000    31.44300000    49.81100000
C      63.91080000    31.44300000    50.51100000
C      64.61080000    31.44300000    48.41100000
C      64.61080000    31.44300000    49.11100000
C      64.61080000    31.44300000    49.81100000
C      64.61080000    31.44300000    50.51100000
C      64.61080000    31.44300000    51.21100000
C      65.31080000    31.44300000    48.41100000
C      65.31080000    31.44300000    49.11100000
C      65.31080000    31.44300000    49.81100000
C      65.31080000    31.44300000    50.51100000
C      65.31080000    31.44300000    51.21100000
C      65.31080000    31.44300000    51.91100000
C      65.31080000    31.44300000    52.61100000
C      65.31080000    31.44300000    53.31100000
C      65.31080000    31.44300000    54.01100000
C      65.31080000    31.44300000    54.71100000
C      65.31080000    31.44300000    56.11100000
C      66.01080000    31.44300000    49.11100000
C      66.01080000    31.44300000    49.81100000
C      66.01080000    31.44300000    50.51100000
C      66.01080000    31.44300000    51.21100000
C      66.01080000    31.44300000    51.91100000
C      66.01080000    31.44300000    52.61100000
C      66.01080000    31.44300000    53.31100000
C      66.01080000    31.44300000    54.01100000
C      66.01080000    31.44300000    54.71100000
C      66.01080000    31.44300000    55.41100000
C      66.71080000    31.44300000    50.51100000
C      66.71080000    31.44300000    51.21100000
C      66.71080000    31.44300000    51.91100000
C      66.71080000    31.44300000    52.61100000
C      66.71080000    31.44300000    53.31100000
C      66.71080000    31.44300000    54.01100000
C      66.71080000    31.44300000    54.71100000
C      53.41080000    32.14300000    58.91100000
C      53.41080000    32.14300000    59.61100000
C      53.41080000    32.14300000    60.31100000
C      53.41080000    32.14300000    61.01100000
C      53.41080000    32.14300000    61.71100000
C      54.11080000    32.14300000    58.21100000
C      54.11080000    32.14300000    58.91100000
C      54.11080000    32.14300000    59.61100000
C      54.11080000    32.14300000    60.31100000
C      54.11080000    32.14300000    61.01100000
C      54.11080000    32.14300000    61.71100000
C      54.11080000    32.14300000    62.41100000
C      54.81080000    32.14300000    58.91100000
C      54.81080000    32.14300000    59.61100000
C      54.81080000    32.14300000    60.31100000
C      54.81080000    32.14300000    61.01100000
C      54.81080000    32.14300000    61.71100000
C      54.81080000    32.14300000    62.41100000
C      54.81080000    32.14300000    63.11100000
C      55.51080000    32.14300000    60.31100000
C      55.51080000    32.14300000    61.01100000
C      55.51080000    32.14300000    61.71100000
C      55.51080000    32.14300000    62.41100000
C      55.51080000    32.14300000    63.11100000
C      55.51080000    32.14300000    63.81100000
C      56.21080000    32.14300000    60.31100000
C      56.21080000    32.14300000    61.01100000
C      56.21080000    32.14300000    61.71100000
C      56.21080000    32.14300000    62.41100000
C      56.21080000    32.14300000    63.11100000
C      56.21080000    32.14300000    63.81100000
C      56.91080000    32.14300000    61.01100000
C      56.91080000    32.14300000    61.71100000
C      56.91080000    32.14300000    62.41100000
C      56.91080000    32.14300000    63.11100000
C      56.91080000    32.14300000    63.81100000
C      57.61080000    32.14300000    50.51100000
C      57.61080000    32.14300000    61.01100000
C      57.61080000    32.14300000    61.71100000
C      57.61080000    32.14300000    62.41100000
C      57.61080000    32.14300000    63.11100000
C      57.61080000    32.14300000    63.81100000
C      57.61080000    32.14300000    64.51100000
C      58.31080000    32.14300000    49.81100000
C      58.31080000    32.14300000    61.01100000
C      58.31080000    32.14300000    61.71100000
C      58.31080000    32.14300000    62.41100000
C      58.31080000    32.14300000    63.11100000
C      58.31080000    32.14300000    63.81100000
C      58.31080000    32.14300000    64.51100000
C      59.01080000    32.14300000    49.11100000
C      59.01080000    32.14300000    49.81100000
C      59.01080000    32.14300000    61.01100000
C      59.01080000    32.14300000    61.71100000
C      59.01080000    32.14300000    62.41100000
C      59.01080000    32.14300000    63.11100000
C      59.01080000    32.14300000    63.81100000
C      59.71080000    32.14300000    48.41100000
C      59.71080000    32.14300000    49.11100000
C      59.71080000    32.14300000    49.81100000
C      59.71080000    32.14300000    60.31100000
C      59.71080000    32.14300000    61.01100000
C      59.71080000    32.14300000    61.71100000
C      59.71080000    32.14300000    62.41100000
C      59.71080000    32.14300000    63.11100000
C      59.71080000    32.14300000    63.81100000
C      60.41080000    32.14300000    48.41100000
C      60.41080000    32.14300000    49.11100000
C      60.41080000    32.14300000    49.81100000
C      60.41080000    32.14300000    60.31100000
C      60.41080000    32.14300000    61.01100000
C      60.41080000    32.14300000    61.71100000
C      60.41080000    32.14300000    62.41100000
C      60.41080000    32.14300000    63.11100000
C      60.41080000    32.14300000    63.81100000
C      61.11080000    32.14300000    47.71100000
C      61.11080000    32.14300000    48.41100000
C      61.11080000    32.14300000    49.11100000
C      61.11080000    32.14300000    60.31100000
C      61.11080000    32.14300000    61.01100000
C      61.11080000    32.14300000    61.71100000
C      61.11080000    32.14300000    62.41100000
C      61.11080000    32.14300000    63.11100000
C      61.81080000    32.14300000    47.71100000
C      61.81080000    32.14300000    48.41100000
C      61.81080000    32.14300000    49.11100000
C      61.81080000    32.14300000    60.31100000
C      61.81080000    32.14300000    61.01100000
C      61.81080000    32.14300000    61.71100000
C      61.81080000    32.14300000    62.41100000
C      62.51080000    32.14300000    47.71100000
C      62.51080000    32.14300000    48.41100000
C      62.51080000    32.14300000    49.11100000
C      62.51080000    32.14300000    49.81100000
C      62.51080000    32.14300000    59.61100000
C      62.51080000    32.14300000    60.31100000
C      62.51080000    32.14300000    61.01100000
C      62.51080000    32.14300000    61.71100000
C      63.21080000    32.14300000    47.71100000
C      63.21080000    32.14300000    48.41100000
C      63.21080000    32.14300000    49.11100000
C      63.21080000    32.14300000    49.81100000
C      63.91080000    32.14300000    48.41100000
C      63.91080000    32.14300000    49.11100000
C      63.91080000    32.14300000    49.81100000
C      63.91080000    32.14300000    50.51100000
C      64.61080000    32.14300000    48.41100000
C      64.61080000    32.14300000    49.11100000
C      64.61080000    32.14300000    49.81100000
C      64.61080000    32.14300000    50.51100000
C      64.61080000    32.14300000    51.21100000
C      65.31080000    32.14300000    49.11100000
C      65.31080000    32.14300000    49.81100000
C      65.31080000    32.14300000    50.51100000
C      65.31080000    32.14300000    51.21100000
C      65.31080000    32.14300000    51.91100000
C      65.31080000    32.14300000    52.61100000
C      65.31080000    32.14300000    53.31100000
C      65.31080000    32.14300000    54.01100000
C      65.31080000    32.14300000    54.71100000
C      65.31080000    32.14300000    56.11100000
C      66.01080000    32.14300000    49.81100000
C      66.01080000    32.14300000    50.51100000
C      66.01080000    32.14300000    51.21100000
C      66.01080000    32.14300000    51.91100000
C      66.01080000    32.14300000    52.61100000
C      66.01080000    32.14300000    53.31100000
C      66.01080000    32.14300000    54.01100000
C      66.01080000    32.14300000    54.71100000
C      66.01080000    32.14300000    55.41100000
C      66.71080000    32.14300000    50.51100000
C      66.71080000    32.14300000    51.21100000
C      66.71080000    32.14300000    51.91100000
C      66.71080000    32.14300000    52.61100000
C      66.71080000    32.14300000    53.31100000
C      66.71080000    32.14300000    54.01100000
C      53.41080000    32.84300000    58.91100000
C      53.41080000    32.84300000    59.61100000
C      53.41080000    32.84300000    60.31100000
C      53.41080000    32.84300000    61.01100000
C      53.41080000    32.84300000    61.71100000
C      54.11080000    32.84300000    58.21100000
C      54.11080000    32.84300000    58.91100000
C      54.11080000    32.84300000    59.61100000
C      54.11080000    32.84300000    60.31100000
C      54.11080000    32.84300000    61.01100000
C      54.11080000    32.84300000    61.71100000
C      54.11080000    32.84300000    62.41100000
C      54.81080000    32.84300000    59.61100000
C      54.81080000    32.84300000    60.31100000
C      54.81080000    32.84300000    61.01100000
C      54.81080000    32.84300000    61.71100000
C      54.81080000    32.84300000    62.41100000
C      54.81080000    32.84300000    63.11100000
C      55.51080000    32.84300000    60.31100000
C      55.51080000    32.84300000    61.01100000
C      55.51080000    32.84300000    61.71100000
C      55.51080000    32.84300000    62.41100000
C      55.51080000    32.84300000    63.11100000
C      55.51080000    32.84300000    63.81100000
C      56.21080000    32.84300000    61.01100000
C      56.21080000    32.84300000    61.71100000
C      56.21080000    32.84300000    62.41100000
C      56.21080000    32.84300000    63.11100000
C      56.21080000    32.84300000    63.81100000
C      56.91080000    32.84300000    61.01100000
C      56.91080000    32.84300000    61.71100000
C      56.91080000    32.84300000    62.41100000
C      56.91080000    32.84300000    63.11100000
C      56.91080000    32.84300000    63.81100000
C      56.91080000    32.84300000    64.51100000
C      57.61080000    32.84300000    61.01100000
C      57.61080000    32.84300000    61.71100000
C      57.61080000    32.84300000    62.41100000
C      57.61080000    32.84300000    63.11100000
C      57.61080000    32.84300000    63.81100000
C      57.61080000    32.84300000    64.51100000
C      58.31080000    32.84300000    61.01100000
C      58.31080000    32.84300000    61.71100000
C      58.31080000    32.84300000    62.41100000
C      58.31080000    32.84300000    63.11100000
C      58.31080000    32.84300000    63.81100000
C      58.31080000    32.84300000    64.51100000
C      59.01080000    32.84300000    49.81100000
C      59.01080000    32.84300000    61.01100000
C      59.01080000    32.84300000    61.71100000
C      59.01080000    32.84300000    62.41100000
C      59.01080000    32.84300000    63.11100000
C      59.01080000    32.84300000    63.81100000
C      59.71080000    32.84300000    49.11100000
C      59.71080000    32.84300000    49.81100000
C      59.71080000    32.84300000    61.01100000
C      59.71080000    32.84300000    61.71100000
C      59.71080000    32.84300000    62.41100000
C      59.71080000    32.84300000    63.11100000
C      59.71080000    32.84300000    63.81100000
C      60.41080000    32.84300000    48.41100000
C      60.41080000    32.84300000    49.11100000
C      60.41080000    32.84300000    49.81100000
C      60.41080000    32.84300000    61.01100000
C      60.41080000    32.84300000    61.71100000
C      60.41080000    32.84300000    62.41100000
C      60.41080000    32.84300000    63.11100000
C      60.41080000    32.84300000    63.81100000
C      61.11080000    32.84300000    48.41100000
C      61.11080000    32.84300000    49.11100000
C      61.11080000    32.84300000    49.81100000
C      61.11080000    32.84300000    61.01100000
C      61.11080000    32.84300000    61.71100000
C      61.11080000    32.84300000    62.41100000
C      61.11080000    32.84300000    63.11100000
C      61.81080000    32.84300000    48.41100000
C      61.81080000    32.84300000    49.11100000
C      61.81080000    32.84300000    49.81100000
C      61.81080000    32.84300000    60.31100000
C      61.81080000    32.84300000    61.01100000
C      61.81080000    32.84300000    61.71100000
C      61.81080000    32.84300000    62.41100000
C      62.51080000    32.84300000    48.41100000
C      62.51080000    32.84300000    49.11100000
C      62.51080000    32.84300000    49.81100000
C      62.51080000    32.84300000    60.31100000
C      62.51080000    32.84300000    61.01100000
C      62.51080000    32.84300000    61.71100000
C      63.21080000    32.84300000    48.41100000
C      63.21080000    32.84300000    49.11100000
C      63.21080000    32.84300000    49.81100000
C      63.21080000    32.84300000    59.61100000
C      63.91080000    32.84300000    48.41100000
C      63.91080000    32.84300000    49.11100000
C      63.91080000    32.84300000    49.81100000
C      63.91080000    32.84300000    50.51100000
C      64.61080000    32.84300000    49.11100000
C      64.61080000    32.84300000    49.81100000
C      64.61080000    32.84300000    50.51100000
C      64.61080000    32.84300000    51.21100000
C      65.31080000    32.84300000    49.11100000
C      65.31080000    32.84300000    49.81100000
C      65.31080000    32.84300000    50.51100000
C      65.31080000    32.84300000    51.21100000
C      65.31080000    32.84300000    51.91100000
C      65.31080000    32.84300000    52.61100000
C      65.31080000    32.84300000    53.31100000
C      65.31080000    32.84300000    54.01100000
C      65.31080000    32.84300000    54.71100000
C      65.31080000    32.84300000    55.41100000
C      66.01080000    32.84300000    49.81100000
C      66.01080000    32.84300000    50.51100000
C      66.01080000    32.84300000    51.21100000
C      66.01080000    32.84300000    51.91100000
C      66.01080000    32.84300000    52.61100000
C      66.01080000    32.84300000    53.31100000
C      66.01080000    32.84300000    54.01100000
C      66.01080000    32.84300000    54.71100000
C      66.71080000    32.84300000    51.21100000
C      66.71080000    32.84300000    51.91100000
C      66.71080000    32.84300000    52.61100000
C      66.71080000    32.84300000    53.31100000
C      53.41080000    33.54300000    58.21100000
C      53.41080000    33.54300000    58.91100000
C      53.41080000    33.54300000    59.61100000
C      53.41080000    33.54300000    60.31100000
C      53.41080000    33.54300000    61.01100000
C      53.41080000    33.54300000    61.71100000
C      54.11080000    33.54300000    58.21100000
C      54.11080000    33.54300000    58.91100000
C      54.11080000    33.54300000    59.61100000
C      54.11080000    33.54300000    60.31100000
C      54.11080000    33.54300000    61.01100000
C      54.11080000    33.54300000    61.71100000
C      54.11080000    33.54300000    62.41100000
C      54.81080000    33.54300000    59.61100000
C      54.81080000    33.54300000    60.31100000
C      54.81080000    33.54300000    61.01100000
C      54.81080000    33.54300000    61.71100000
C      54.81080000    33.54300000    62.41100000
C      54.81080000    33.54300000    63.11100000
C      55.51080000    33.54300000    60.31100000
C      55.51080000    33.54300000    61.01100000
C      55.51080000    33.54300000    61.71100000
C      55.51080000    33.54300000    62.41100000
C      55.51080000    33.54300000    63.11100000
C      55.51080000    33.54300000    63.81100000
C      56.21080000    33.54300000    61.01100000
C      56.21080000    33.54300000    61.71100000
C      56.21080000    33.54300000    62.41100000
C      56.21080000    33.54300000    63.11100000
C      56.21080000    33.54300000    63.81100000
C      56.91080000    33.54300000    61.01100000
C      56.91080000    33.54300000    61.71100000
C      56.91080000    33.54300000    62.41100000
C      56.91080000    33.54300000    63.11100000
C      56.91080000    33.54300000    63.81100000
C      57.61080000    33.54300000    61.01100000
C      57.61080000    33.54300000    61.71100000
C      57.61080000    33.54300000    62.41100000
C      57.61080000    33.54300000    63.11100000
C      57.61080000    33.54300000    63.81100000
C      57.61080000    33.54300000    64.51100000
C      58.31080000    33.54300000    61.01100000
C      58.31080000    33.54300000    61.71100000
C      58.31080000    33.54300000    62.41100000
C      58.31080000    33.54300000    63.11100000
C      58.31080000    33.54300000    63.81100000
C      58.31080000    33.54300000    64.51100000
C      59.01080000    33.54300000    61.01100000
C      59.01080000    33.54300000    61.71100000
C      59.01080000    33.54300000    62.41100000
C      59.01080000    33.54300000    63.11100000
C      59.01080000    33.54300000    63.81100000
C      59.71080000    33.54300000    49.81100000
C      59.71080000    33.54300000    61.01100000
C      59.71080000    33.54300000    61.71100000
C      59.71080000    33.54300000    62.41100000
C      59.71080000    33.54300000    63.11100000
C      59.71080000    33.54300000    63.81100000
C      60.41080000    33.54300000    49.11100000
C      60.41080000    33.54300000    49.81100000
C      60.41080000    33.54300000    61.01100000
C      60.41080000    33.54300000    61.71100000
C      60.41080000    33.54300000    62.41100000
C      60.41080000    33.54300000    63.11100000
C      60.41080000    33.54300000    63.81100000
C      61.11080000    33.54300000    49.11100000
C      61.11080000    33.54300000    49.81100000
C      61.11080000    33.54300000    61.01100000
C      61.11080000    33.54300000    61.71100000
C      61.11080000    33.54300000    62.41100000
C      61.11080000    33.54300000    63.11100000
C      61.81080000    33.54300000    49.11100000
C      61.81080000    33.54300000    49.81100000
C      61.81080000    33.54300000    61.01100000
C      61.81080000    33.54300000    61.71100000
C      61.81080000    33.54300000    62.41100000
C      62.51080000    33.54300000    48.41100000
C      62.51080000    33.54300000    49.11100000
C      62.51080000    33.54300000    49.81100000
C      62.51080000    33.54300000    60.31100000
C      62.51080000    33.54300000    61.01100000
C      62.51080000    33.54300000    61.71100000
C      63.21080000    33.54300000    49.11100000
C      63.21080000    33.54300000    49.81100000
C      63.21080000    33.54300000    50.51100000
C      63.21080000    33.54300000    59.61100000
C      63.91080000    33.54300000    49.11100000
C      63.91080000    33.54300000    49.81100000
C      63.91080000    33.54300000    50.51100000
C      64.61080000    33.54300000    49.11100000
C      64.61080000    33.54300000    49.81100000
C      64.61080000    33.54300000    50.51100000
C      64.61080000    33.54300000    51.21100000
C      64.61080000    33.54300000    51.91100000
C      65.31080000    33.54300000    49.81100000
C      65.31080000    33.54300000    50.51100000
C      65.31080000    33.54300000    51.21100000
C      65.31080000    33.54300000    51.91100000
C      65.31080000    33.54300000    52.61100000
C      65.31080000    33.54300000    53.31100000
C      65.31080000    33.54300000    54.01100000
C      65.31080000    33.54300000    54.71100000
C      66.01080000    33.54300000    51.21100000
C      66.01080000    33.54300000    51.91100000
C      66.01080000    33.54300000    52.61100000
C      66.01080000    33.54300000    53.31100000
C      53.41080000    34.24300000    58.91100000
C      53.41080000    34.24300000    59.61100000
C      53.41080000    34.24300000    60.31100000
C      53.41080000    34.24300000    61.01100000
C      53.41080000    34.24300000    61.71100000
C      54.11080000    34.24300000    58.91100000
C      54.11080000    34.24300000    59.61100000
C      54.11080000    34.24300000    60.31100000
C      54.11080000    34.24300000    61.01100000
C      54.11080000    34.24300000    61.71100000
C      54.11080000    34.24300000    62.41100000
C      54.81080000    34.24300000    59.61100000
C      54.81080000    34.24300000    60.31100000
C      54.81080000    34.24300000    61.01100000
C      54.81080000    34.24300000    61.71100000
C      54.81080000    34.24300000    62.41100000
C      54.81080000    34.24300000    63.11100000
C      55.51080000    34.24300000    60.31100000
C      55.51080000    34.24300000    61.01100000
C      55.51080000    34.24300000    61.71100000
C      55.51080000    34.24300000    62.41100000
C      55.51080000    34.24300000    63.11100000
C      55.51080000    34.24300000    63.81100000
C      56.21080000    34.24300000    61.01100000
C      56.21080000    34.24300000    61.71100000
C      56.21080000    34.24300000    62.41100000
C      56.21080000    34.24300000    63.11100000
C      56.21080000    34.24300000    63.81100000
C      56.91080000    34.24300000    61.01100000
C      56.91080000    34.24300000    61.71100000
C      56.91080000    34.24300000    62.41100000
C      56.91080000    34.24300000    63.11100000
C      56.91080000    34.24300000    63.81100000
C      57.61080000    34.24300000    61.01100000
C      57.61080000    34.24300000    61.71100000
C      57.61080000    34.24300000    62.41100000
C      57.61080000    34.24300000    63.11100000
C      57.61080000    34.24300000    63.81100000
C      58.31080000    34.24300000    61.01100000
C      58.31080000    34.24300000    61.71100000
C      58.31080000    34.24300000    62.41100000
C      58.31080000    34.24300000    63.11100000
C      58.31080000    34.24300000    63.81100000
C      59.01080000    34.24300000    61.01100000
C      59.01080000    34.24300000    61.71100000
C      59.01080000    34.24300000    62.41100000
C      59.01080000    34.24300000    63.11100000
C      59.01080000    34.24300000    63.81100000
C      59.71080000    34.24300000    61.01100000
C      59.71080000    34.24300000    61.71100000
C      59.71080000    34.24300000    62.41100000
C      59.71080000    34.24300000    63.11100000
C      59.71080000    34.24300000    63.81100000
C      60.41080000    34.24300000    61.71100000
C      60.41080000    34.24300000    62.41100000
C      60.41080000    34.24300000    63.11100000
C      61.11080000    34.24300000    61.01100000
C      61.11080000    34.24300000    61.71100000
C      61.11080000    34.24300000    62.41100000
C      61.11080000    34.24300000    63.11100000
C      61.81080000    34.24300000    49.81100000
C      61.81080000    34.24300000    61.01100000
C      61.81080000    34.24300000    61.71100000
C      61.81080000    34.24300000    62.41100000
C      62.51080000    34.24300000    49.81100000
C      62.51080000    34.24300000    50.51100000
C      62.51080000    34.24300000    60.31100000
C      62.51080000    34.24300000    61.01100000
C      63.21080000    34.24300000    49.81100000
C      63.21080000    34.24300000    50.51100000
C      63.21080000    34.24300000    59.61100000
C      63.91080000    34.24300000    49.81100000
C      63.91080000    34.24300000    50.51100000
C      63.91080000    34.24300000    51.21100000
C      64.61080000    34.24300000    50.51100000
C      64.61080000    34.24300000    51.21100000
C      64.61080000    34.24300000    51.91100000
C      64.61080000    34.24300000    52.61100000
C      65.31080000    34.24300000    51.91100000
C      53.41080000    34.94300000    54.01100000
C      53.41080000    34.94300000    59.61100000
C      53.41080000    34.94300000    60.31100000
C      54.11080000    34.94300000    59.61100000
C      54.11080000    34.94300000    60.31100000
C      54.11080000    34.94300000    61.01100000
C      54.11080000    34.94300000    61.71100000
C      54.81080000    34.94300000    60.31100000
C      54.81080000    34.94300000    61.01100000
C      54.81080000    34.94300000    61.71100000
C      54.81080000    34.94300000    62.41100000
C      55.51080000    34.94300000    60.31100000
C      55.51080000    34.94300000    61.01100000
C      55.51080000    34.94300000    61.71100000
C      55.51080000    34.94300000    62.41100000
C      55.51080000    34.94300000    63.11100000
C      56.21080000    34.94300000    61.01100000
C      56.21080000    34.94300000    61.71100000
C      56.21080000    34.94300000    62.41100000
C      56.21080000    34.94300000    63.11100000
C      56.21080000    34.94300000    63.81100000
C      56.91080000    34.94300000    61.01100000
C      56.91080000    34.94300000    61.71100000
C      56.91080000    34.94300000    62.41100000
C      56.91080000    34.94300000    63.11100000
C      56.91080000    34.94300000    63.81100000
C      57.61080000    34.94300000    61.01100000
C      57.61080000    34.94300000    61.71100000
C      57.61080000    34.94300000    62.41100000
C      57.61080000    34.94300000    63.11100000
C      57.61080000    34.94300000    63.81100000
C      58.31080000    34.94300000    61.01100000
C      58.31080000    34.94300000    61.71100000
C      58.31080000    34.94300000    62.41100000
C      58.31080000    34.94300000    63.11100000
C      58.31080000    34.94300000    63.81100000
C      59.01080000    34.94300000    61.01100000
C      59.01080000    34.94300000    61.71100000
C      59.01080000    34.94300000    62.41100000
C      59.01080000    34.94300000    63.11100000
C      59.01080000    34.94300000    63.81100000
C      59.71080000    34.94300000    61.01100000
C      59.71080000    34.94300000    61.71100000
C      59.71080000    34.94300000    62.41100000
C      59.71080000    34.94300000    63.11100000
C      60.41080000    34.94300000    61.01100000
C      60.41080000    34.94300000    61.71100000
C      60.41080000    34.94300000    62.41100000
C      60.41080000    34.94300000    63.11100000
C      61.11080000    34.94300000    61.01100000
C      61.11080000    34.94300000    61.71100000
C      61.11080000    34.94300000    62.41100000
C      61.81080000    34.94300000    61.01100000
C      61.81080000    34.94300000    61.71100000
C      62.51080000    34.94300000    60.31100000
C      62.51080000    34.94300000    61.01100000
C      63.21080000    34.94300000    59.61100000
C      54.11080000    35.64300000    59.61100000
C      54.11080000    35.64300000    60.31100000
C      54.11080000    35.64300000    61.01100000
C      54.81080000    35.64300000    60.31100000
C      54.81080000    35.64300000    61.01100000
C      54.81080000    35.64300000    61.71100000
C      54.81080000    35.64300000    62.41100000
C      55.51080000    35.64300000    61.01100000
C      55.51080000    35.64300000    61.71100000
C      55.51080000    35.64300000    62.41100000
C      56.21080000    35.64300000    61.01100000
C      56.21080000    35.64300000    61.71100000
C      56.21080000    35.64300000    62.41100000
C      56.21080000    35.64300000    63.11100000
C      56.91080000    35.64300000    61.01100000
C      56.91080000    35.64300000    61.71100000
C      56.91080000    35.64300000    62.41100000
C      56.91080000    35.64300000    63.11100000
C      57.61080000    35.64300000    61.01100000
C      57.61080000    35.64300000    61.71100000
C      57.61080000    35.64300000    62.41100000
C      57.61080000    35.64300000    63.11100000
C      58.31080000    35.64300000    61.01100000
C      58.31080000    35.64300000    61.71100000
C      58.31080000    35.64300000    62.41100000
C      58.31080000    35.64300000    63.11100000
C      59.01080000    35.64300000    61.01100000
C      59.01080000    35.64300000    61.71100000
C      59.01080000    35.64300000    62.41100000
C      59.01080000    35.64300000    63.11100000
C      59.71080000    35.64300000    61.01100000
C      59.71080000    35.64300000    61.71100000
C      59.71080000    35.64300000    62.41100000
C      59.71080000    35.64300000    63.11100000
C      60.41080000    35.64300000    61.01100000
C      60.41080000    35.64300000    61.71100000
C      60.41080000    35.64300000    62.41100000
C      61.11080000    35.64300000    61.01100000
C      61.11080000    35.64300000    61.71100000
C      61.81080000    35.64300000    61.01100000
C      62.51080000    35.64300000    60.31100000
C      54.11080000    36.34300000    54.71100000
C      54.81080000    36.34300000    54.01100000
C      55.51080000    36.34300000    60.31100000
C      55.51080000    36.34300000    61.01100000
C      55.51080000    36.34300000    61.71100000
C      56.21080000    36.34300000    61.01100000
C      56.21080000    36.34300000    61.71100000
C      56.21080000    36.34300000    62.41100000
C      56.91080000    36.34300000    61.01100000
C      56.91080000    36.34300000    61.71100000
C      56.91080000    36.34300000    62.41100000
C      57.61080000    36.34300000    61.01100000
C      57.61080000    36.34300000    61.71100000
C      57.61080000    36.34300000    62.41100000
C      58.31080000    36.34300000    61.01100000
C      58.31080000    36.34300000    61.71100000
C      58.31080000    36.34300000    62.41100000
C      59.01080000    36.34300000    61.01100000
C      59.01080000    36.34300000    61.71100000
C      59.01080000    36.34300000    62.41100000
C      59.71080000    36.34300000    61.01100000
C      59.71080000    36.34300000    61.71100000
C      59.71080000    36.34300000    62.41100000
C      60.41080000    36.34300000    61.01100000
C      60.41080000    36.34300000    61.71100000
C      61.81080000    36.34300000    60.31100000
C      62.51080000    36.34300000    59.61100000
C      63.21080000    36.34300000    58.91100000
C      56.91080000    37.04300000    61.01100000
C      57.61080000    37.04300000    61.01100000
C      58.31080000    37.04300000    61.01100000
C      61.81080000    37.04300000    59.61100000
C      62.51080000    37.04300000    58.91100000
C      61.81080000    37.74300000    58.91100000
C      62.51080000    37.74300000    57.51100000
C      62.51080000    37.74300000    58.21100000
