88
shell7p8 TS-under-field
C     60.14190600    34.25017500    56.86750500
H     60.65410400    33.35229400    57.20242100
H     60.73860600    35.07435300    56.47491200
C     58.80287300    34.45194900    57.16141800
C     58.13069700    35.79868100    56.84307300
O     58.86276300    36.77666300    56.53446600
O     56.87734100    35.82963400    56.93983700
O     58.04533200    33.51170800    57.60013500
C     57.53567900    32.20862600    56.01945400
H     56.92805500    31.57263500    56.66681400
C     58.86068700    31.87524000    55.78984900
H     59.36035100    31.12725100    56.40326400
C     59.64119800    32.67145500    54.96010600
C     58.97535300    33.57937300    54.02371700
H     59.61208400    34.05213900    53.27111900
C     57.64453400    33.77154800    54.05277400
H     57.14874400    34.42947900    53.33266900
C     56.77153500    33.13738000    55.09626400
H     56.36648800    33.96180100    55.70835200
O     55.70405500    32.44082700    54.44502300
H     55.04194600    32.20048300    55.11214300
C     61.07068900    32.21901900    54.67969600
O     61.72429900    31.71851300    55.62834500
O     61.44865900    32.31879300    53.48933100
C     55.346500    24.988900    48.817300
O     56.530325    25.050676    48.420763
O     54.635216    23.961517    48.849859
H     54.888521    25.924750    49.170061
C     49.610400    27.395400    60.437600
N     49.760977    27.780620    59.173546
H     49.450460    28.443122    59.869800
H     49.957146    26.825582    59.437213
N     49.201501    28.267804    61.354449
H     49.397670    27.312766    61.618116
H     49.315849    28.560340    60.394528
N     49.868721    26.137776    60.784805
H     49.983070    26.430311    59.824884
H     49.558204    26.800278    61.481059
C     63.911200    25.572400    47.147400
O     65.095025    25.634176    46.750863
O     63.199916    24.545017    47.179959
H     63.453221    26.508250    47.500161
C     58.030000    43.799600    62.702400
N     58.180577    44.184820    61.438346
H     57.870060    44.847322    62.134600
H     58.376746    43.229782    61.702013
N     57.621101    44.672004    63.619249
H     57.817270    43.716966    63.882916
H     57.735449    44.964540    62.659328
N     58.288321    42.541976    63.049605
H     58.402670    42.834511    62.089684
H     57.977804    43.204478    63.745859
C     62.442000    33.859300    44.245100
O     63.625825    33.921076    43.848563
O     61.730716    32.831917    44.277659
H     61.984021    34.795150    44.597861
C     69.881900    27.171000    54.689900
O     71.065725    27.232776    54.293363
O     69.170616    26.143617    54.722459
H     69.423921    28.106850    55.042661
C     70.796000    30.775000    57.726600
O     71.979825    30.836776    57.330063
O     70.084716    29.747617    57.759159
H     70.338021    31.710850    58.079361
C     66.187700    39.148600    49.279800
O     67.371525    39.210376    48.883263
O     65.476416    38.121217    49.312359
H     65.729721    40.084450    49.632561
C     59.949300    24.872300    62.844000
N     60.099877    25.257520    61.579946
H     59.789360    25.920022    62.276200
H     60.296046    24.302482    61.843613
N     59.540401    25.744704    63.760849
H     59.736570    24.789666    64.024516
H     59.654749    26.037240    62.800928
N     60.207621    23.614676    63.191205
H     60.321970    23.907211    62.231284
H     59.897104    24.277178    63.887459
C     63.788500    30.565300    65.299400
N     63.939077    30.950520    64.035346
H     63.628560    31.613022    64.731600
H     64.135246    29.995482    64.299013
N     63.379601    31.437704    66.216249
H     63.575770    30.482666    66.479916
H     63.493949    31.730240    65.256328
N     64.046821    29.307676    65.646605
H     64.161170    29.600211    64.686684
H     63.736304    29.970178    66.342859
