82
shell7p0 K=10 +-1 net-free proxy+6.60
C     60.11193800    34.38396900    57.21013200
H     60.60719900    33.42993900    57.38460900
H     60.72469300    35.27181800    57.05919300
C     58.78057700    34.50353200    57.15195800
C     58.09218200    35.83426100    56.89335400
O     58.81246700    36.81821800    56.57878900
O     56.83954900    35.84891700    57.00961700
O     57.93461500    33.42640300    57.34599800
C     57.67693600    32.53773200    56.20080600
H     57.01901700    31.76376900    56.62407200
C     58.98648700    31.96184000    55.79317200
H     59.46393000    31.24298300    56.46049600
C     59.68310500    32.48267100    54.76815100
C     59.06432100    33.48370900    53.89317900
H     59.70236100    33.90454400    53.11096900
C     57.78125300    33.86565900    54.03153300
H     57.33218100    34.60235400    53.35662900
C     56.88979900    33.27109300    55.08618200
H     56.34719000    34.09064800    55.58588000
O     55.96286300    32.39770700    54.43466800
H     55.31084500    32.10952700    55.09277000
C     61.12320000    32.06212600    54.53420800
O     61.78496200    31.70232800    55.54338100
O     61.54107100    32.10651300    53.35273800
C     70.010200    31.629100    52.577900
O     71.194025    31.690876    52.181363
O     69.298916    30.601717    52.610459
H     69.552221    32.564950    52.930661
C     60.833900    26.301300    47.159800
O     62.017725    26.363076    46.763263
O     60.122616    25.273917    47.192359
H     60.375921    27.237150    47.512561
C     66.674400    34.025400    46.831700
O     67.858225    34.087176    46.435163
O     65.963116    32.998017    46.864259
H     66.216421    34.961250    47.184461
C     63.922200    29.711700    45.533600
O     65.106025    29.773476    45.137063
O     63.210916    28.684317    45.566159
H     63.464221    30.647550    45.886361
C     66.286300    26.541600    48.987700
O     67.470125    26.603376    48.591163
O     65.575016    25.514217    49.020259
H     65.828321    27.477450    49.340461
C     59.898700    29.112000    64.871600
N     60.049277    29.497220    63.607546
H     59.738760    30.159722    64.303800
H     60.245446    28.542182    63.871213
N     59.489801    29.984404    65.788449
H     59.685970    29.029366    66.052116
H     59.604149    30.276940    64.828528
N     60.157021    27.854376    65.218805
H     60.271370    28.146911    64.258884
H     59.846504    28.516878    65.915059
C     54.838200    30.216500    64.830700
N     54.988777    30.601720    63.566646
H     54.678260    31.264222    64.262900
H     55.184946    29.646682    63.830313
N     54.429301    31.088904    65.747549
H     54.625470    30.133866    66.011216
H     54.543649    31.381440    64.787628
N     55.096521    28.958876    65.177905
H     55.210870    29.251411    64.217984
H     54.786004    29.621378    65.874159
C     68.341300    26.710900    53.386300
O     69.525125    26.772676    52.989763
O     67.630016    25.683517    53.418859
H     67.883321    27.646750    53.739061
C     58.330200    34.278700    66.374400
N     58.480777    34.663920    65.110346
H     58.170260    35.326422    65.806600
H     58.676946    33.708882    65.374013
N     57.921301    35.151104    67.291249
H     58.117470    34.196066    67.554916
H     58.035649    35.443640    66.331328
N     58.588521    33.021076    66.721605
H     58.702870    33.313611    65.761684
H     58.278004    33.683578    67.417859
C     61.962500    23.884500    51.166600
O     63.146325    23.946276    50.770063
O     61.251216    22.857117    51.199159
H     61.504521    24.820350    51.519361
