88
shell7p0 TS-under-field
C     60.14190600    34.25017500    56.86750500
H     60.65410400    33.35229400    57.20242100
H     60.73860600    35.07435300    56.47491200
C     58.80287300    34.45194900    57.16141800
C     58.13069700    35.79868100    56.84307300
O     58.86276300    36.77666300    56.53446600
O     56.87734100    35.82963400    56.93983700
O     58.04533200    33.51170800    57.60013500
C     57.53567900    32.20862600    56.01945400
H     56.92805500    31.57263500    56.66681400
C     58.86068700    31.87524000    55.78984900
H     59.36035100    31.12725100    56.40326400
C     59.64119800    32.67145500    54.96010600
C     58.97535300    33.57937300    54.02371700
H     59.61208400    34.05213900    53.27111900
C     57.64453400    33.77154800    54.05277400
H     57.14874400    34.42947900    53.33266900
C     56.77153500    33.13738000    55.09626400
H     56.36648800    33.96180100    55.70835200
O     55.70405500    32.44082700    54.44502300
H     55.04194600    32.20048300    55.11214300
C     61.07068900    32.21901900    54.67969600
O     61.72429900    31.71851300    55.62834500
O     61.44865900    32.31879300    53.48933100
C     65.785100    30.631700    46.116700
O     66.968925    30.693476    45.720163
O     65.073816    29.604317    46.149259
H     65.327121    31.567550    46.469461
C     58.765300    25.018300    49.531000
O     59.949125    25.080076    49.134463
O     58.054016    23.990917    49.563559
H     58.307321    25.954150    49.883761
C     62.474300    29.933700    64.561700
N     62.624877    30.318920    63.297646
H     62.314360    30.981422    63.993900
H     62.821046    29.363882    63.561313
N     62.065401    30.806104    65.478549
H     62.261570    29.851066    65.742216
H     62.179749    31.098640    64.518628
N     62.732621    28.676076    64.908905
H     62.846970    28.968611    63.948984
H     62.422104    29.338578    65.605159
C     67.869200    26.316800    52.987300
O     69.053025    26.378576    52.590763
O     67.157916    25.289417    53.019859
H     67.411221    27.252650    53.340061
C     58.431000    36.173900    66.025900
N     58.581577    36.559120    64.761846
H     58.271060    37.221622    65.458100
H     58.777746    35.604082    65.025513
N     58.022101    37.046304    66.942749
H     58.218270    36.091266    67.206416
H     58.136449    37.338840    65.982828
N     58.689321    34.916276    66.373105
H     58.803670    35.208811    65.413184
H     58.378804    35.578778    67.069359
C     56.752400    30.349200    65.548900
N     56.902977    30.734420    64.284846
H     56.592460    31.396922    64.981100
H     57.099146    29.779382    64.548513
N     56.343501    31.221604    66.465749
H     56.539670    30.266566    66.729416
H     56.457849    31.514140    65.505828
N     57.010721    29.091576    65.896105
H     57.125070    29.384111    64.936184
H     56.700204    29.754078    66.592359
C     70.055200    31.936600    53.143100
O     71.239025    31.998376    52.746563
O     69.343916    30.909217    53.175659
H     69.597221    32.872450    53.495861
C     59.491300    30.037300    45.348100
O     60.675125    30.099076    44.951563
O     58.780016    29.009917    45.380659
H     59.033321    30.973150    45.700861
C     52.761100    33.051100    64.305300
N     52.911677    33.436320    63.041246
H     52.601160    34.098822    63.737500
H     53.107846    32.481282    63.304913
N     52.352201    33.923504    65.222149
H     52.548370    32.968466    65.485816
H     52.466549    34.216040    64.262228
N     53.019421    31.793476    64.652505
H     53.133770    32.086011    63.692584
H     52.708904    32.455978    65.348759
C     64.729600    25.919200    48.445000
O     65.913425    25.980976    48.048463
O     64.018316    24.891817    48.477559
H     64.271621    26.855050    48.797761
