3040
explore m1_ge7: 24 substrate + 3016 active C quasi-atoms
C     60.11193800    34.38396900    57.21013200
H     60.60719900    33.42993900    57.38460900
H     60.72469300    35.27181800    57.05919300
C     58.78057700    34.50353200    57.15195800
C     58.09218200    35.83426100    56.89335400
O     58.81246700    36.81821800    56.57878900
O     56.83954900    35.84891700    57.00961700
O     57.93461500    33.42640300    57.34599800
C     57.67693600    32.53773200    56.20080600
H     57.01901700    31.76376900    56.62407200
C     58.98648700    31.96184000    55.79317200
H     59.46393000    31.24298300    56.46049600
C     59.68310500    32.48267100    54.76815100
C     59.06432100    33.48370900    53.89317900
H     59.70236100    33.90454400    53.11096900
C     57.78125300    33.86565900    54.03153300
H     57.33218100    34.60235400    53.35662900
C     56.88979900    33.27109300    55.08618200
H     56.34719000    34.09064800    55.58588000
O     55.96286300    32.39770700    54.43466800
H     55.31084500    32.10952700    55.09277000
C     61.12320000    32.06212600    54.53420800
O     61.78496200    31.70232800    55.54338100
O     61.54107100    32.10651300    53.35273800
C      50.27310000    40.94170000    55.13910000
C      62.49090000    23.65170000    52.77400000
C      59.35530000    32.90650000    44.98100000
C      47.57110000    29.56970000    52.89790000
C      69.66580000    33.73210000    51.37810000
C      47.27030000    27.43320000    53.82840000
C      62.33450000    28.81390000    65.15030000
C      57.02840000    42.75980000    63.79670000
C      68.23430000    34.51490000    47.02810000
C      57.00330000    28.04070000    47.19090000
C      54.84800000    32.02210000    65.47600000
C      70.01020000    31.62910000    52.57790000
C      67.68180000    26.31240000    60.71850000
C      50.51380000    42.94710000    57.44950000
C      53.33230000    23.27390000    59.20570000
C      58.27460000    37.14420000    45.56170000
C      51.72540000    28.42560000    62.16760000
C      56.94910000    35.15280000    66.15750000
C      62.67120000    24.62090000    61.99700000
C      56.67950000    45.00470000    55.58970000
C      69.29870000    27.84000000    56.63380000
C      60.83390000    26.30130000    47.15980000
C      67.31270000    34.90070000    63.68580000
C      46.98750000    29.74610000    58.81550000
C      56.92160000    35.19300000    44.01010000
C      65.97760000    37.72140000    62.85590000
C      65.23820000    38.17790000    64.53130000
C      66.47350000    38.22020000    47.96520000
C      56.40620000    25.89280000    47.50200000
C      54.47840000    35.64070000    65.23610000
C      48.38480000    39.89550000    55.35660000
C      52.48810000    40.19280000    62.90330000
C      48.95570000    25.31870000    55.55880000
C      68.05070000    26.71200000    48.98210000
C      55.39770000    43.91690000    53.33850000
C      53.51390000    41.30690000    50.58500000
C      46.57990000    34.91300000    57.48490000
C      47.47680000    36.18610000    58.76020000
C      67.28880000    38.19030000    61.00760000
C      56.65240000    44.60660000    59.26560000
C      65.64180000    30.23460000    63.06050000
C      55.10490000    38.54280000    65.97220000
C      60.71960000    25.90070000    62.57020000
C      61.16620000    36.36180000    45.42910000
C      46.66400000    35.90280000    56.03340000
C      50.64030000    40.97810000    62.09500000
C      56.88680000    28.41780000    64.40380000
C      52.76460000    31.55700000    46.38240000
C      58.49330000    24.10620000    62.27980000
C      52.23420000    42.99830000    57.47240000
C      54.85260000    26.71480000    64.19650000
C      62.40220000    26.14410000    63.52830000
C      64.16170000    24.18130000    48.78060000
C      55.66590000    23.25360000    57.84770000
C      69.16860000    33.31350000    59.54290000
C      53.02580000    26.96080000    48.46110000
C      53.35160000    43.06150000    54.11930000
C      53.99400000    26.95000000    62.76830000
C      57.03010000    23.64290000    52.99010000
C      53.01320000    24.71780000    49.57660000
C      47.64620000    31.94360000    58.63750000
C      54.41800000    24.12380000    52.88600000
C      67.09670000    39.82180000    61.88730000
C      49.58350000    29.53380000    62.01790000
C      59.87170000    44.94160000    58.91320000
C      65.30900000    40.64540000    52.39170000
C      50.38110000    40.88150000    52.15730000
C      69.24150000    35.68450000    52.68160000
C      57.45290000    22.80130000    59.96080000
C      69.76740000    29.22910000    53.89680000
C      58.48160000    35.86600000    44.17800000
C      58.97080000    46.27480000    57.65420000
C      63.03310000    44.64400000    59.98370000
C      52.24300000    31.01070000    64.71710000
C      51.90600000    23.48660000    56.15710000
C      54.42260000    30.16490000    45.20230000
C      52.01830000    24.69740000    57.15450000
C      71.09400000    32.45510000    53.70250000
C      62.30020000    37.75960000    64.92220000
C      49.86400000    27.73430000    59.63270000
C      54.52780000    37.55370000    44.99730000
C      60.59060000    33.77410000    67.11520000
C      54.93950000    45.51220000    56.48160000
C      51.82600000    41.16180000    50.00340000
C      49.90090000    38.98350000    62.72280000
C      46.18940000    31.70530000    57.56290000
C      63.98300000    40.62630000    50.65940000
C      66.25130000    41.32730000    56.97400000
C      59.30800000    41.48760000    64.85760000
C      59.65240000    41.97100000    48.35960000
C      57.24580000    23.51700000    61.27540000
C      47.65970000    32.99350000    51.39600000
C      64.45940000    23.68970000    56.63580000
C      61.18300000    23.30710000    60.89020000
C      51.88280000    28.80070000    47.67370000
C      54.42500000    33.77540000    44.39530000
C      47.43960000    31.28970000    60.20740000
C      61.78630000    28.25820000    44.65150000
C      54.74150000    40.28760000    65.16420000
C      57.22990000    21.99480000    55.92110000
C      58.18370000    25.92930000    62.63080000
C      65.70820000    40.39450000    61.07330000
C      62.48630000    40.41320000    64.59050000
C      47.90410000    37.52980000    59.82280000
C      68.63000000    25.99430000    58.88370000
C      58.05930000    32.81320000    67.34890000
C      68.08500000    31.32170000    62.72860000
C      62.76000000    31.43840000    66.10350000
C      48.36070000    39.64070000    59.09040000
C      51.92300000    34.47620000    65.04270000
C      56.62140000    44.51390000    61.73240000
C      52.05590000    35.68040000    45.66160000
C      71.27250000    32.27230000    56.05930000
C      51.26580000    30.29510000    46.18990000
C      62.69290000    36.96850000    46.12110000
C      60.35980000    22.05750000    57.56550000
C      57.88670000    40.36670000    46.21010000
C      48.90220000    26.91280000    53.81630000
C      60.76950000    46.10860000    55.87030000
C      50.33040000    27.49680000    61.61200000
C      56.27720000    39.50840000    45.64700000
C      58.08210000    36.61670000    66.93370000
C      56.11480000    23.85110000    50.25000000
C      62.03770000    34.25860000    65.69080000
C      67.43750000    24.04820000    55.75330000
C      51.63560000    42.13860000    59.43970000
C      66.67440000    34.02540000    46.83170000
C      63.78540000    27.43750000    46.59190000
C      46.89140000    32.81860000    55.77840000
C      67.71430000    40.31240000    60.27400000
C      52.72650000    28.02520000    46.48460000
C      53.36010000    38.47400000    64.32620000
C      58.20030000    25.35610000    49.37660000
C      46.18620000    30.75570000    52.97270000
C      59.38870000    36.94460000    65.67670000
C      69.04060000    39.06300000    56.02710000
C      69.79560000    34.58040000    55.99820000
C      64.82370000    24.50170000    58.93000000
C      61.53700000    22.20640000    54.93560000
C      56.84940000    46.11520000    57.14030000
C      47.40890000    34.87900000    53.60340000
C      59.40360000    22.25630000    53.97220000
C      60.38900000    24.27180000    48.07130000
C      53.14560000    28.39370000    63.20810000
C      62.69570000    45.33470000    58.33830000
C      67.51170000    24.60400000    58.26460000
C      55.39530000    24.65890000    62.53510000
C      59.68490000    32.49460000    67.21500000
C      59.60620000    35.03980000    67.20990000
C      49.22460000    30.62780000    60.66920000
C      62.08820000    39.33490000    47.43790000
C      48.50720000    36.86980000    61.49750000
C      56.80700000    30.28680000    66.63260000
C      53.85080000    43.54310000    59.11820000
C      49.97940000    32.37940000    61.55770000
C      63.92220000    29.71170000    45.53360000
C      66.28630000    26.54160000    48.98770000
C      58.23360000    44.92050000    59.14400000
C      64.93530000    42.69760000    57.66000000
C      70.86420000    28.85520000    55.79150000
C      48.31830000    33.07830000    61.32540000
C      46.18810000    33.17740000    52.68250000
C      68.27930000    35.91270000    47.81120000
C      66.36210000    33.43780000    45.25500000
C      46.16730000    34.59460000    54.41300000
C      65.63680000    25.67490000    60.17880000
C      49.43460000    25.76850000    58.54660000
C      60.58490000    33.83430000    44.96040000
C      58.45870000    27.26490000    63.57860000
C      51.83000000    42.20100000    54.34150000
C      48.41000000    28.82670000    51.58060000
C      59.89870000    29.11200000    64.87160000
C      62.00500000    41.99790000    62.53870000
C      49.41430000    37.14580000    50.78660000
C      68.78550000    32.68210000    47.20600000
C      66.85130000    39.51740000    53.24980000
C      65.35640000    24.09720000    54.14820000
C      57.70310000    45.83730000    53.74360000
C      47.84300000    34.82800000    60.20160000
C      60.36210000    26.59360000    45.68370000
C      69.37630000    29.98730000    59.01060000
C      63.32850000    23.14180000    50.69910000
C      54.10280000    28.50330000    46.99890000
C      63.09270000    40.51970000    47.61400000
C      70.06330000    28.29850000    51.49350000
C      65.48630000    34.40240000    65.28340000
C      52.62400000    23.95600000    51.42400000
C      67.05840000    35.88860000    46.58090000
C      57.82770000    46.23790000    55.63610000
C      54.49150000    24.65860000    60.51850000
C      46.91900000    32.94180000    54.08790000
C      64.32060000    32.50440000    45.31030000
C      50.27170000    34.18560000    62.17200000
C      57.33920000    44.37380000    52.93350000
C      48.74660000    37.52230000    53.85060000
C      56.31810000    33.53340000    45.03440000
C      68.03190000    29.97560000    46.72570000
C      69.91640000    27.51050000    52.91550000
C      65.60110000    23.63840000    51.80270000
C      68.24470000    40.06530000    54.63980000
C      58.16940000    38.30890000    65.23190000
C      59.77190000    31.20230000    44.04410000
C      61.24080000    41.78100000    64.32810000
C      61.71570000    27.47330000    64.54290000
C      65.69550000    26.97790000    46.49460000
C      65.12670000    28.83980000    45.16420000
C      48.57230000    34.60580000    61.55890000
C      64.00580000    40.88180000    63.56830000
C      48.48790000    28.40220000    58.24800000
C      69.18980000    27.16940000    50.57590000
C      47.78190000    35.79850000    50.06750000
C      60.83570000    44.90200000    61.17860000
C      63.53940000    22.48790000    57.15610000
C      58.83150000    44.16020000    60.89800000
C      53.55560000    29.31710000    64.92400000
C      70.72350000    31.56710000    58.83610000
C      57.06550000    30.32000000    44.83840000
C      56.37010000    26.32380000    64.20040000
C      59.85790000    30.24640000    66.60870000
C      63.81800000    24.51370000    50.23580000
C      59.06520000    23.59060000    49.89790000
C      64.77330000    22.66570000    55.56390000
C      56.36630000    41.04120000    64.97290000
C      58.16960000    31.32900000    67.09130000
C      50.69120000    24.59100000    57.90020000
C      64.07790000    35.53910000    65.98480000
C      54.83820000    30.21650000    64.83070000
C      50.65320000    32.06490000    63.41810000
C      64.23330000    29.91580000    65.07340000
C      61.33990000    37.78000000    44.93050000
C      67.43610000    36.71990000    63.17810000
C      63.87130000    26.91010000    63.55710000
C      67.88730000    37.71490000    52.07990000
C      69.65100000    29.15000000    60.26850000
C      63.78520000    34.27330000    65.09350000
C      59.59120000    25.58470000    46.70120000
C      47.81360000    28.34320000    55.38490000
C      65.33420000    36.03940000    65.21180000
C      53.93290000    43.20050000    51.47630000
C      49.20670000    37.77230000    52.38550000
C      50.49440000    39.96350000    50.22030000
C      52.96920000    43.69390000    60.76080000
C      45.97320000    30.63270000    55.08060000
C      69.66820000    33.69510000    48.66040000
C      57.66380000    23.17170000    54.62090000
C      51.75010000    24.56530000    59.92780000
C      51.87920000    30.25130000    62.98960000
C      55.12920000    41.82320000    64.21920000
C      59.13300000    29.16930000    44.62590000
C      68.39410000    26.33740000    55.86340000
C      62.24210000    30.27240000    44.03830000
C      69.17870000    25.94660000    57.21560000
C      55.34240000    43.91630000    59.76350000
C      46.33020000    29.28750000    54.49650000
C      58.23180000    28.18390000    65.62990000
C      58.75280000    42.85110000    63.94100000
C      60.87600000    30.93980000    65.51130000
C      62.32800000    38.73620000    45.73890000
C      60.71190000    22.72330000    51.94560000
C      66.38980000    36.54630000    47.93610000
C      69.02660000    28.89420000    48.43080000
C      55.41670000    36.06690000    45.36250000
C      52.46340000    25.59640000    62.04630000
C      58.83020000    22.78250000    52.41830000
C      68.34130000    26.71090000    53.38630000
C      55.25780000    33.21110000    66.87890000
C      62.79780000    25.06680000    48.72500000
C      48.43210000    28.41190000    60.26800000
C      62.66660000    28.46320000    63.57290000
C      65.40910000    31.86950000    65.07230000
C      67.04000000    39.94480000    51.67400000
C      69.12150000    35.38730000    57.93760000
C      67.47670000    39.69970000    58.47320000
C      70.85490000    32.25780000    51.39730000
C      57.68260000    39.88160000    65.69760000
C      62.37510000    32.70590000    43.89040000
C      51.14290000    37.15630000    63.20720000
C      50.74800000    30.80130000    62.01780000
C      52.57440000    33.26680000    46.42220000
C      48.12380000    26.38570000    56.82510000
C      63.22250000    35.37700000    44.57370000
C      61.87620000    24.51290000    47.62320000
C      64.78380000    38.62810000    48.72200000
C      60.55060000    39.16100000    45.61040000
C      68.13560000    35.44150000    62.55220000
C      66.90030000    26.16070000    50.44310000
C      55.40130000    32.29020000    44.34760000
C      64.52120000    44.02480000    59.12500000
C      71.11250000    33.57530000    55.22370000
C      64.36110000    36.43400000    46.57940000
C      48.85990000    41.03440000    57.19840000
C      61.25140000    45.84260000    58.36810000
C      65.79110000    32.06360000    44.83580000
C      68.90030000    27.99950000    58.40750000
C      56.89830000    31.99840000    44.24010000
C      51.36150000    42.45240000    52.88990000
C      60.92530000    38.53970000    64.80760000
C      64.13710000    30.61720000    44.31780000
C      50.18060000    24.40980000    55.63160000
C      54.84320000    43.15040000    62.78000000
C      69.36550000    37.57780000    54.00460000
C      52.99780000    42.11330000    52.69650000
C      54.65680000    45.07450000    58.85020000
C      57.52020000    45.31910000    60.66040000
C      70.29780000    31.21550000    49.73110000
C      54.99140000    27.04940000    47.86280000
C      70.60840000    34.46220000    57.89460000
C      48.36600000    36.04960000    51.62750000
C      56.79390000    37.03270000    44.39780000
C      51.09250000    25.80800000    60.84370000
C      59.85530000    43.92280000    62.82550000
C      48.54240000    37.31550000    58.25930000
C      53.04800000    40.31250000    64.51240000
C      55.75480000    28.61400000    65.50240000
C      63.02290000    36.44180000    65.14370000
C      57.81970000    33.05940000    45.06790000
C      68.33820000    27.16940000    51.94470000
C      51.92650000    41.39880000    61.20740000
C      63.51040000    38.63290000    47.60190000
C      69.40280000    36.71950000    50.61370000
C      47.92020000    39.09330000    57.71740000
C      61.34430000    31.90550000    66.71570000
C      62.07380000    40.90350000    49.29900000
C      60.33880000    27.54810000    63.72620000
C      68.35000000    24.86440000    54.68630000
C      69.96690000    29.68280000    56.78260000
C      61.92210000    25.99330000    46.06640000
C      58.62430000    28.75130000    46.08570000
C      60.05450000    34.88180000    43.97200000
C      65.62340000    37.31500000    46.51180000
C      61.39120000    44.42500000    59.41720000
C      49.44120000    40.39980000    60.90380000
C      70.16650000    35.39620000    51.03260000
C      66.76110000    32.82390000    62.76690000
C      63.56840000    43.31600000    61.65320000
C      63.65280000    26.42790000    62.01840000
C      59.41230000    45.54330000    60.33580000
C      66.70390000    29.31560000    62.12010000
C      46.90200000    34.12670000    58.93940000
C      64.26670000    33.70530000    44.37460000
C      60.06760000    40.97650000    47.14680000
C      47.09650000    34.06150000    50.42660000
C      70.71850000    34.60880000    53.03240000
C      58.82610000    21.94940000    56.09440000
C      54.11200000    34.88150000    45.58500000
C      55.79700000    23.73560000    59.43230000
C      52.90480000    44.30890000    55.12540000
C      67.77600000    27.65170000    47.70740000
C      49.78270000    38.54040000    49.66790000
C      56.83990000    34.12400000    67.27180000
C      50.40080000    33.62730000    63.65740000
C      61.95270000    44.01800000    61.95550000
C      61.22010000    23.18460000    50.05310000
C      63.59270000    41.57180000    49.50210000
C      60.16970000    24.64340000    61.35250000
C      54.76410000    24.33170000    49.52400000
C      51.77270000    36.83420000    65.00760000
C      64.66850000    39.60060000    64.15220000
C      52.76110000    35.71270000    65.60790000
C      50.10870000    36.54490000    62.18350000
C      47.17050000    28.10580000    57.53840000
C      55.62630000    23.20950000    51.80530000
C      71.21190000    30.76930000    54.60690000
C      51.09690000    43.35290000    55.86510000
C      53.47810000    32.86700000    66.03510000
C      61.96990000    36.16430000    66.56120000
C      62.62330000    23.26710000    54.70960000
C      53.75180000    43.78740000    57.06500000
C      67.97500000    25.12460000    52.53800000
C      65.25280000    28.62490000    63.91000000
C      58.65730000    40.22100000    47.53670000
C      54.14250000    44.73360000    54.10090000
C      65.84890000    24.39480000    49.80490000
C      65.78510000    30.63170000    46.11670000
C      63.70670000    25.14100000    47.23730000
C      52.83020000    23.06070000    57.51460000
C      58.33020000    34.27870000    66.37440000
C      55.62620000    35.04060000    66.91100000
C      70.64070000    29.89640000    51.64230000
C      49.21530000    40.42740000    53.61710000
C      47.20580000    33.21840000    57.30120000
C      64.91810000    41.88140000    61.89350000
C      51.27540000    27.65270000    48.90040000
C      65.31310000    39.25160000    62.56430000
C      61.95470000    44.74300000    56.83530000
C      53.95310000    32.74910000    45.77660000
C      64.70110000    25.63460000    48.80620000
C      59.77300000    36.82360000    44.38750000
C      65.80960000    42.79380000    59.14640000
C      69.80530000    36.84930000    56.12130000
C      46.62270000    34.45000000    51.95930000
C      63.45960000    23.80030000    58.25040000
C      55.58820000    23.61120000    61.24820000
C      70.27730000    35.88980000    54.55320000
C      53.39050000    42.24320000    63.15820000
C      60.18290000    27.89520000    44.92570000
C      63.79340000    32.57340000    64.89100000
C      49.86570000    42.24960000    56.01190000
C      66.77620000    28.49640000    46.27060000
C      59.47810000    39.24300000    65.86710000
C      66.11870000    35.99070000    63.29340000
C      66.53460000    39.32490000    49.53450000
C      65.84530000    23.35840000    57.66510000
C      50.27310000    40.86890000    59.06760000
C      67.16700000    41.58030000    58.87550000
C      47.16170000    36.71850000    53.21420000
C      55.04250000    44.14690000    61.34720000
C      67.73720000    38.26130000    49.52250000
C      58.09250000    31.54520000    45.42710000
C      68.70240000    36.43700000    61.48700000
C      53.96140000    36.54920000    45.98230000
C      50.31500000    42.29680000    54.47270000
C      62.84880000    28.38500000    45.80230000
C      50.99980000    35.60150000    64.52240000
C      55.33020000    28.42900000    45.75950000
C      64.95250000    40.64640000    49.46520000
C      53.77540000    37.09120000    65.93550000
C      46.10710000    34.08410000    56.23360000
C      56.48970000    37.20280000    66.53760000
C      64.75920000    22.91210000    53.42550000
C      51.52000000    43.53870000    58.78810000
C      58.48830000    27.19140000    45.79560000
C      51.61940000    28.82730000    63.65800000
C      55.89770000    27.04400000    46.56460000
C      54.94020000    30.73300000    66.26770000
C      47.66410000    38.04410000    55.74440000
C      60.75020000    23.41890000    53.62770000
C      46.81170000    31.27120000    50.99990000
C      69.56280000    31.72680000    48.24270000
C      70.34320000    27.57580000    54.96740000
C      67.05050000    31.35080000    45.62740000
C      57.72340000    24.74420000    50.81380000
C      61.04430000    40.13650000    65.21750000
C      66.29730000    41.74890000    60.46090000
C      57.94510000    26.20590000    46.80700000
C      65.53510000    33.61070000    63.96720000
C      50.39240000    28.73740000    47.36900000
C      53.78080000    25.42580000    48.29740000
C      62.72920000    34.05890000    45.14730000
C      66.82190000    24.82280000    59.77450000
C      59.43460000    25.14060000    63.38630000
C      67.63920000    38.03070000    62.46360000
C      55.60920000    31.43000000    45.61930000
C      47.08130000    30.70690000    56.37920000
C      69.55190000    26.26650000    54.69770000
C      51.92590000    40.75450000    52.06430000
C      48.80490000    26.88740000    55.36960000
C      63.41360000    33.13000000    66.24280000
C      60.95880000    23.09050000    56.13590000
C      70.43160000    32.99880000    50.07220000
C      65.31310000    35.03600000    45.11920000
C      57.31700000    41.19810000    63.73370000
C      49.18750000    31.06690000    62.11580000
C      59.28970000    23.10070000    60.89630000
C      56.90050000    24.63380000    49.01000000
C      51.64390000    26.94780000    62.60710000
C      48.81450000    38.91720000    61.10640000
C      61.96250000    23.88450000    51.16660000
C      53.95350000    25.29890000    62.69950000
C      57.15900000    28.59560000    45.66740000
C      66.55370000    24.88870000    53.70160000
C      52.16020000    25.70060000    48.71290000
C      67.61200000    32.70360000    46.04620000
C      55.38670000    44.46480000    55.04920000
C      49.23490000    38.82770000    51.16740000
C      69.33620000    35.42880000    49.01910000
C      55.27220000    25.18090000    48.26740000
C      62.08090000    22.26270000    56.72980000
C      56.73400000    22.31320000    53.78020000
C      63.88250000    38.38220000    65.20030000
C      66.71510000    31.01480000    63.82380000
C      62.75120000    31.52360000    44.94160000
C      71.13830000    30.70190000    56.99910000
C      51.49610000    39.35120000    64.06380000
C      68.49330000    37.44990000    55.27580000
C      63.80020000    37.98520000    45.95810000
C      69.81140000    34.32640000    54.43150000
C      50.47330000    41.82110000    60.80240000
C      60.55160000    42.51930000    62.66430000
C      70.95270000    32.92310000    57.83080000
C      66.38480000    24.64920000    56.82510000
C      48.29070000    32.95960000    59.70190000
C      60.59590000    29.69460000    44.19410000
C      68.73580000    27.48830000    60.49540000
C      67.55430000    33.33930000    70.99280000
C      60.61260000    25.65090000    45.10160000
C      56.12110000    39.97260000    67.73990000
C      58.89450000    24.40460000    38.98070000
C      42.63370000    35.17750000    63.37560000
C      55.61430000    35.31550000    74.09400000
C      57.52940000    37.12480000    68.84650000
C      59.74510000    37.31100000    71.86450000
C      49.94500000    31.92430000    65.63400000
C      62.72370000    43.53440000    63.66520000
C      64.34140000    36.84010000    41.00240000
C      56.09320000    37.73050000    43.63330000
C      73.37420000    28.16620000    52.25900000
C      75.00550000    36.94940000    58.56220000
C      44.80680000    31.05350000    63.36670000
C      64.95660000    35.15780000    42.78390000
C      49.42360000    48.31980000    57.52400000
C      62.30000000    23.67560000    39.16760000
C      64.27210000    40.24220000    42.47400000
C      59.15750000    46.60950000    62.63520000
C      49.49300000    43.10030000    59.02880000
C      65.81040000    15.73860000    54.18820000
C      46.55330000    44.39110000    59.00220000
C      60.31130000    28.81790000    72.46820000
C      44.71590000    26.87470000    61.37320000
C      73.01380000    38.44930000    50.05130000
C      59.88720000    33.12630000    38.92980000
C      44.62800000    24.79380000    58.41240000
C      41.27830000    41.23900000    58.29980000
C      55.68780000    37.39240000    40.42520000
C      53.36120000    27.06070000    72.16800000
C      42.12020000    30.70680000    62.97380000
C      62.10290000    26.24880000    44.63510000
C      56.12770000    40.07320000    69.83160000
C      56.81170000    23.99270000    69.89000000
C      63.12490000    21.54190000    40.75210000
C      57.42250000    31.65860000    70.19490000
C      74.17950000    29.93570000    55.50970000
C      66.97310000    27.93260000    71.22840000
C      69.66830000    29.24770000    39.25850000
C      70.39350000    21.46930000    53.56140000
C      51.06670000    43.31250000    68.04390000
C      65.63260000    34.55890000    72.96880000
C      73.30600000    34.04910000    49.53990000
C      62.92080000    31.34740000    40.93370000
C      46.65850000    29.98080000    66.36260000
C      42.65210000    31.23040000    65.50180000
C      46.06590000    36.51000000    69.51480000
C      49.64350000    32.12310000    69.41820000
C      44.28850000    37.01750000    51.54080000
C      54.38000000    19.98190000    47.07600000
C      61.77050000    23.88370000    63.16450000
C      63.21320000    34.25980000    41.13480000
C      60.80870000    35.16330000    73.12130000
C      71.96150000    38.47960000    47.56280000
C      62.05670000    28.53230000    43.47420000
C      74.00330000    36.13110000    45.02600000
C      55.59710000    21.16970000    43.72770000
C      50.82720000    22.98020000    56.22900000
C      73.18390000    36.56650000    57.43900000
C      49.99650000    35.72650000    70.93750000
C      66.80880000    17.63530000    47.37620000
C      57.92160000    35.95040000    73.22590000
C      69.47460000    27.48360000    40.84150000
C      48.85030000    31.73360000    63.20230000
C      65.98990000    23.57810000    43.85400000
C      73.15850000    24.64260000    44.28770000
C      62.37150000    42.81070000    48.60800000
C      75.14290000    32.73520000    53.73780000
C      63.14900000    33.94690000    67.45940000
C      58.25330000    37.33440000    41.40130000
C      54.81380000    24.13090000    45.10220000
C      47.57820000    36.20520000    63.84980000
C      46.12180000    21.49900000    61.18850000
C      63.66780000    35.42380000    70.39830000
C      64.73850000    18.48520000    49.47530000
C      67.06020000    42.64770000    70.01510000
C      74.18050000    25.42170000    50.83060000
C      76.84460000    35.30120000    56.60830000
C      68.14440000    37.64750000    63.64010000
C      55.73300000    32.77150000    70.09050000
C      50.91610000    25.91180000    47.68050000
C      68.19580000    19.10160000    45.64080000
C      51.26580000    38.08530000    40.83790000
C      60.91950000    27.25240000    42.92520000
C      61.88340000    30.28900000    39.96090000
C      62.52250000    45.32340000    70.24570000
C      46.17490000    32.79460000    60.11300000
C      65.26670000    41.96850000    47.54760000
C      59.81680000    16.95130000    57.07760000
C      70.04040000    33.60000000    41.67630000
C      56.53460000    21.20050000    61.26290000
C      55.39160000    41.79110000    41.26250000
C      57.86760000    20.44270000    50.31370000
C      50.86750000    46.49980000    64.86410000
C      66.21590000    17.11620000    58.44950000
C      47.19250000    24.02200000    59.61720000
C      63.63570000    28.44100000    42.63540000
C      59.01370000    48.97410000    64.51590000
C      57.67330000    42.42990000    42.73560000
C      44.79800000    39.61970000    64.19200000
C      71.00200000    18.30100000    52.66020000
C      50.15540000    26.79650000    62.60860000
C      55.84660000    25.69620000    40.38840000
C      48.97480000    23.03260000    67.90190000
C      46.72890000    26.69640000    63.75990000
C      62.77870000    26.54730000    42.20480000
C      69.19260000    21.61730000    55.89530000
C      50.78090000    34.04840000    40.48880000
C      60.17570000    22.49200000    45.45290000
C      66.39430000    28.13230000    64.34500000
C      54.10240000    40.71750000    40.89990000
C      47.16130000    47.89170000    58.47320000
C      64.61020000    24.44000000    41.41060000
C      53.87800000    41.33170000    38.96970000
C      54.01790000    20.80670000    53.17490000
C      62.33190000    30.88820000    37.90200000
C      48.31590000    24.90190000    60.29790000
C      54.46070000    46.95800000    62.49180000
C      59.90230000    29.47880000    70.61760000
C      69.65370000    45.00730000    46.58020000
C      55.42330000    36.89370000    70.69120000
C      52.75170000    32.52740000    73.38710000
C      70.43930000    36.17570000    42.62600000
C      67.10440000    37.36250000    38.71360000
C      65.78250000    28.35600000    67.19690000
C      48.64400000    31.25790000    42.84310000
C      62.59200000    24.27380000    64.65000000
C      51.71510000    44.98240000    57.99210000
C      60.07690000    32.04100000    73.20380000
C      71.01940000    40.49150000    52.76440000
C      51.27280000    38.21220000    66.81190000
C      50.28870000    33.45460000    44.17940000
C      64.71670000    40.53160000    45.60470000
C      62.20140000    37.52030000    37.51950000
C      54.59660000    30.24200000    43.02470000
C      65.76700000    26.41320000    63.76060000
C      71.25900000    35.26420000    44.50140000
C      78.12160000    31.87430000    53.10020000
C      63.55080000    22.14790000    66.57290000
C      44.77730000    28.07130000    53.28410000
C      62.81090000    18.63070000    58.88310000
C      56.78390000    26.70480000    70.50530000
C      50.48280000    50.66290000    60.61970000
C      51.81130000    23.20640000    45.34370000
C      52.87280000    25.86720000    41.74650000
C      54.49070000    49.48100000    62.21510000
C      39.58390000    34.67100000    59.27690000
C      53.31170000    39.33490000    42.77150000
C      45.50210000    30.81690000    58.44310000
C      60.89720000    18.45630000    48.44980000
C      77.11220000    29.62300000    54.27370000
C      46.63840000    29.51940000    62.01110000
C      49.72530000    35.64130000    68.50310000
C      72.05850000    21.67320000    53.38370000
C      50.87950000    27.37410000    45.21310000
C      54.62670000    23.85060000    67.11980000
C      76.29590000    26.23350000    54.94070000
C      48.90140000    33.36870000    71.45020000
C      56.73570000    30.19240000    67.66550000
C      57.33930000    27.81590000    43.52300000
C      66.58940000    41.14190000    66.00030000
C      47.52630000    25.38390000    56.14800000
C      43.94820000    33.41840000    53.96600000
C      62.58130000    47.08470000    62.67130000
C      64.88030000    26.12560000    38.32120000
C      57.26680000    20.63030000    43.81990000
C      48.45570000    44.93380000    55.03510000
C      46.63500000    38.99110000    51.17490000
C      51.95560000    29.35290000    67.74710000
C      73.93670000    40.48430000    49.21970000
C      45.13020000    33.70660000    53.08390000
C      46.97400000    36.87420000    60.51060000
C      73.45850000    39.86140000    44.94400000
C      56.74430000    28.60410000    40.08670000
C      69.14150000    24.93660000    44.77450000
C      60.95810000    16.05760000    55.23320000
C      49.32760000    27.19120000    46.32680000
C      52.97850000    32.20980000    38.69530000
C      48.75130000    43.58650000    51.40440000
C      51.36350000    26.05900000    67.28970000
C      47.02310000    26.58460000    60.54930000
C      39.14320000    30.67910000    57.81650000
C      70.53760000    33.32750000    46.26460000
C      66.81970000    43.78460000    42.42460000
C      53.06810000    31.04170000    70.04960000
C      55.58850000    39.11480000    44.33910000
C      72.81880000    42.80680000    47.69200000
C      48.07820000    46.73570000    65.81860000
C      64.76970000    37.25180000    68.66980000
C      44.93380000    43.86660000    54.83090000
C      57.18970000    29.08210000    71.59410000
C      47.10160000    29.88220000    40.45040000
C      66.43450000    26.22810000    70.67310000
C      55.13120000    47.45950000    59.00320000
C      51.25400000    23.94110000    60.58820000
C      61.94940000    40.92740000    69.10400000
C      68.77190000    32.89690000    44.42070000
C      56.66890000    33.64320000    40.98300000
C      59.75090000    37.25960000    39.31450000
C      53.51970000    50.22530000    64.64790000
C      51.07660000    26.28860000    39.74640000
C      64.88050000    22.23990000    40.53180000
C      42.24890000    35.36240000    55.97800000
C      61.70060000    43.24150000    41.28650000
C      63.30560000    37.82980000    71.13760000
C      72.54520000    21.62010000    50.22930000
C      69.34360000    25.65910000    42.94390000
C      60.57160000    32.13610000    36.86250000
C      75.57210000    24.58030000    55.67800000
C      72.59920000    33.08890000    43.99730000
C      69.38740000    35.83100000    45.78800000
C      40.83280000    27.93450000    58.41350000
C      56.89540000    18.59000000    66.39740000
C      47.16960000    32.84000000    67.41250000
C      45.37640000    36.82910000    67.42490000
C      70.35140000    35.82010000    66.19580000
C      61.25770000    20.00680000    50.15300000
C      70.69440000    27.02630000    48.54900000
C      66.72580000    38.13520000    43.68380000
C      68.21160000    26.91590000    42.80120000
C      49.04320000    47.53670000    60.67270000
C      44.76980000    27.99180000    65.49310000
C      57.17310000    20.21000000    53.98000000
C      66.66870000    35.18600000    42.35570000
C      50.85920000    32.58600000    70.28830000
C      56.93540000    16.74880000    51.44630000
C      67.51000000    40.04730000    49.72760000
C      61.90410000    34.77160000    68.76930000
C      55.43650000    29.58110000    72.55900000
C      43.15180000    25.24870000    61.53840000
C      59.34780000    20.88870000    42.85590000
C      61.61830000    30.41660000    41.95880000
C      48.70650000    24.44350000    57.03810000
C      66.15640000    46.64290000    64.34890000
C      70.10280000    25.36890000    49.61520000
C      55.71440000    40.67720000    38.36110000
C      47.77320000    41.48080000    65.30550000
C      50.71070000    26.74510000    65.98520000
C      47.36830000    44.03570000    56.97990000
C      49.60470000    45.00410000    63.83550000
C      70.47930000    21.09600000    50.24650000
C      55.81920000    28.89330000    42.28070000
C      71.00540000    30.83830000    45.25660000
C      61.88330000    29.48080000    70.21030000
C      77.45910000    31.38200000    60.76640000
C      55.78540000    21.63170000    63.70080000
C      70.97300000    23.92770000    58.98710000
C      45.79550000    22.14170000    58.97590000
C      67.95790000    23.38640000    57.38140000
C      67.12370000    35.64670000    43.92000000
C      53.23460000    22.54600000    66.98600000
C      42.05500000    27.91450000    63.79320000
C      61.03800000    37.50030000    70.55950000
C      63.70970000    25.40890000    67.51340000
C      52.51820000    40.10580000    70.20080000
C      52.34730000    35.31160000    42.01050000
C      68.32320000    43.33240000    43.14740000
C      59.72230000    23.89830000    47.03210000
C      54.73320000    26.27510000    66.28670000
C      53.48180000    45.57710000    65.77580000
C      70.45750000    37.53400000    43.26210000
C      76.75600000    32.87860000    46.96680000
C      65.99400000    41.15920000    42.65270000
C      53.16740000    19.11160000    49.27830000
C      69.04160000    43.73110000    48.56890000
C      75.61450000    27.44770000    54.34270000
C      50.97980000    22.46780000    46.62500000
C      61.80860000    37.86210000    39.63890000
C      62.07520000    22.66650000    41.04700000
C      70.12240000    35.20620000    40.79940000
C      67.65490000    33.71350000    40.28220000
C      66.36940000    31.85600000    42.89820000
C      44.23190000    30.24000000    52.81600000
C      74.86020000    28.26820000    55.55250000
C      60.48560000    43.86450000    45.95740000
C      52.27920000    46.40220000    56.29810000
C      74.34600000    28.94730000    59.71440000
C      70.42860000    37.45780000    69.97630000
C      43.49210000    41.77540000    64.72850000
C      66.93910000    22.84680000    46.88600000
C      62.40450000    17.65110000    47.77340000
C      42.33780000    43.43080000    59.26710000
C      61.20500000    44.13570000    66.44920000
C      69.04420000    40.11720000    47.30840000
C      72.87250000    25.31490000    47.33190000
C      65.14660000    35.01790000    38.54160000
C      61.80980000    17.95540000    44.83570000
C      71.10660000    36.54740000    56.35330000
C      62.83110000    25.75280000    39.25220000
C      71.98850000    25.66090000    43.85890000
C      63.01790000    37.79190000    44.28530000
C      60.68980000    46.90660000    58.88920000
C      77.88170000    29.91310000    58.79830000
C      65.46530000    24.84520000    45.31740000
C      72.22010000    29.08360000    42.50620000
C      51.21950000    27.71040000    67.92250000
C      53.24660000    43.80610000    68.61010000
C      43.17460000    40.73090000    56.51890000
C      59.97700000    24.07630000    63.74350000
C      61.23340000    19.15420000    55.01170000
C      43.81290000    39.04700000    53.58820000
C      70.21610000    26.67850000    46.14260000
C      68.74240000    23.15450000    42.92040000
C      66.36800000    43.34780000    64.25190000
C      53.75370000    51.14370000    59.74540000
C      55.43880000    21.44870000    58.84590000
C      64.55270000    21.56340000    55.12420000
C      51.31870000    34.31730000    69.43010000
C      67.01010000    39.60740000    65.25060000
C      64.59140000    23.96920000    42.99710000
C      43.36180000    38.38490000    55.03110000
C      58.55790000    22.68130000    49.76060000
C      40.04740000    32.17020000    61.24150000
C      58.09430000    23.41030000    40.97050000
C      63.83580000    19.74970000    52.43830000
C      59.06450000    31.07670000    42.15100000
C      70.11890000    41.51660000    48.69690000
C      68.34430000    24.29570000    51.52810000
C      65.19040000    45.98590000    59.46840000
C      40.03290000    34.47250000    55.99430000
C      72.16050000    18.90030000    56.70350000
C      45.24840000    24.33750000    63.67080000
C      77.00370000    25.65000000    53.38890000
C      55.19320000    32.41160000    40.23880000
C      50.52760000    40.89340000    67.84820000
C      48.22780000    39.72260000    65.22690000
C      76.88030000    34.55270000    53.30820000
C      66.51100000    27.73640000    38.21780000
C      62.17220000    46.49450000    44.77230000
C      73.51340000    38.80380000    46.09890000
C      71.36120000    19.92820000    52.30590000
C      58.92100000    27.12830000    70.80660000
C      65.56590000    19.66140000    47.05030000
C      76.73110000    29.20960000    62.13410000
C      54.49770000    38.74300000    38.88950000
C      64.88280000    32.47980000    73.09930000
C      50.21870000    38.92520000    68.38870000
C      52.86810000    21.20410000    63.82120000
C      44.51990000    35.85110000    53.70580000
C      42.47120000    32.86220000    59.08130000
C      56.42560000    24.78640000    66.79070000
C      61.78850000    21.67050000    46.44410000
C      55.90130000    35.16460000    71.09770000
C      63.34390000    39.20950000    41.58680000
C      50.70120000    29.89840000    45.43690000
C      54.29250000    20.27260000    43.34180000
C      47.04210000    20.40780000    63.15250000
C      47.33530000    46.53970000    59.48940000
C      53.12150000    32.54570000    70.30560000
C      46.02870000    25.22570000    59.46250000
C      48.87260000    27.86490000    40.01450000
C      48.99480000    30.77190000    64.53070000
C      65.64680000    28.80390000    69.82640000
C      49.52650000    42.54130000    60.52650000
C      45.44260000    43.72380000    66.00980000
C      57.80480000    27.50720000    68.74250000
C      56.26130000    21.03170000    67.59570000
C      74.30320000    31.68600000    55.64670000
C      56.47350000    46.68090000    65.52350000
C      48.30650000    44.62160000    59.64550000
C      52.61470000    16.35490000    51.32270000
C      77.18690000    32.85580000    57.05720000
C      51.47730000    47.88860000    63.09960000
C      40.92080000    37.86430000    55.16420000
C      50.45670000    20.24750000    46.40700000
C      52.69530000    26.62080000    43.70950000
C      60.79100000    37.08500000    73.85260000
C      76.82380000    29.54890000    52.33320000
C      74.14320000    33.62610000    55.01240000
C      74.74780000    25.15770000    49.09480000
C      69.39030000    31.28930000    70.82630000
C      51.41580000    28.89290000    70.92170000
C      58.47230000    18.29230000    46.98320000
C      61.67030000    40.90510000    43.31730000
C      73.15410000    23.22180000    52.44430000
C      72.52480000    25.84000000    61.29080000
C      73.45050000    27.43540000    57.09810000
C      58.88980000    18.96500000    55.58490000
C      49.71770000    30.35750000    39.07380000
C      73.45100000    40.96230000    46.10100000
C      59.10780000    41.26510000    42.10270000
C      40.43670000    29.57630000    61.60840000
C      56.23960000    23.95990000    43.87310000
C      69.12450000    39.22550000    67.80390000
C      53.63260000    36.94670000    73.38270000
C      55.00630000    48.92410000    67.15400000
C      54.74650000    38.24450000    73.35340000
C      60.86560000    16.25070000    53.67760000
C      74.67120000    25.33000000    53.51410000
C      66.84650000    32.70520000    69.02040000
C      53.76970000    31.39920000    40.73010000
C      74.31990000    27.12650000    48.58840000
C      60.64080000    35.34330000    67.99990000
C      57.58330000    28.44330000    42.05510000
C      67.37480000    43.28280000    45.62430000
C      60.54490000    41.50520000    41.14780000
C      66.23710000    18.54440000    51.16120000
C      55.47350000    15.29040000    53.43600000
C      47.94810000    28.79590000    64.45750000
C      54.92860000    46.85110000    60.69240000
C      53.17790000    40.12400000    65.89580000
C      70.78980000    28.22670000    44.28970000
C      65.56530000    23.07430000    49.76530000
C      61.53570000    46.93840000    57.46840000
C      65.28800000    41.42550000    39.89570000
C      72.27170000    31.32220000    60.32640000
C      61.55880000    32.61130000    70.95230000
C      55.71690000    38.10720000    67.22110000
C      68.89660000    37.68390000    40.87770000
C      62.48780000    39.61190000    68.53610000
C      42.34620000    43.75350000    57.60800000
C      49.06400000    29.81560000    42.84650000
C      76.34270000    38.72920000    50.20270000
C      44.74580000    38.84440000    55.63400000
C      52.90610000    48.96020000    57.25020000
C      65.57540000    21.86660000    47.38660000
C      57.16920000    41.03360000    45.44260000
C      68.65880000    41.94610000    47.31860000
C      48.47990000    41.01120000    67.69930000
C      47.41680000    44.55660000    52.75120000
C      50.95590000    47.96730000    55.87940000
C      44.07610000    33.20150000    60.36200000
C      45.97450000    35.62160000    58.28930000
C      53.05690000    27.85350000    38.71120000
C      66.76990000    41.40970000    46.53970000
C      58.96900000    45.33800000    41.33710000
C      72.88130000    24.34000000    57.87010000
C      68.30830000    29.10290000    40.86370000
C      54.31240000    26.93820000    43.22350000
C      48.92640000    39.53050000    67.33350000
C      52.96430000    17.72870000    47.44920000
C      68.24090000    33.73560000    38.34130000
C      61.05700000    40.03170000    70.74790000
C      65.23620000    24.54630000    66.53720000
C      71.31900000    20.72630000    60.97030000
C      63.46110000    26.83110000    65.98150000
C      62.78710000    44.90850000    66.65430000
C      53.53690000    28.21610000    65.68080000
C      58.90770000    20.94850000    46.18780000
C      64.80770000    16.90620000    47.77170000
C      54.53660000    18.42040000    65.88360000
C      48.32980000    41.71820000    55.07190000
C      69.54800000    23.67090000    58.35280000
C      74.44280000    30.90620000    49.49640000
C      71.16100000    23.60370000    53.74710000
C      54.84840000    25.79890000    69.55260000
C      70.61990000    38.92990000    66.56360000
C      73.71620000    34.29030000    42.40500000
C      74.20280000    26.36150000    55.73670000
C      71.98440000    37.13250000    43.03260000
C      42.93280000    27.04020000    56.08430000
C      54.73870000    47.16490000    65.91370000
C      70.67190000    36.78560000    51.03270000
C      66.38170000    37.63220000    65.24650000
C      52.49280000    21.48910000    68.54310000
C      73.89090000    27.54530000    62.40560000
C      66.29380000    39.99150000    48.15080000
C      69.38100000    30.95550000    40.00960000
C      68.22800000    34.87290000    65.62130000
C      70.75090000    33.70960000    43.58830000
C      55.64650000    22.25680000    47.10000000
C      52.85690000    26.80070000    40.19260000
C      54.92400000    49.97180000    65.78370000
C      57.36900000    31.60340000    68.13920000
C      53.05270000    49.48040000    60.73540000
C      54.41240000    17.99630000    46.49180000
C      55.96620000    42.91140000    39.51820000
C      50.25770000    20.21170000    48.82550000
C      60.23530000    33.42160000    71.25270000
C      45.45790000    40.43650000    62.68340000
C      73.78010000    26.54210000    59.04180000
C      46.66290000    35.96300000    50.05410000
C      65.84140000    37.38720000    45.33540000
C      58.40380000    15.39490000    52.66490000
C      67.64930000    40.53340000    43.22930000
C      54.68990000    34.52560000    68.77990000
C      68.14970000    32.09040000    66.87800000
C      49.20570000    41.07910000    63.86820000
C      63.31970000    22.05350000    46.10870000
C      46.62470000    40.05340000    60.27530000
C      57.40910000    48.82110000    66.31650000
C      59.52050000    17.49440000    48.53110000
C      53.31650000    37.69380000    44.37530000
C      63.43540000    22.72010000    48.99850000
C      64.60650000    33.67880000    43.41450000
C      55.29120000    45.14100000    65.25900000
C      51.31580000    26.57180000    71.03820000
C      42.86110000    34.67760000    59.54930000
C      61.35500000    20.37380000    53.50270000
C      68.45860000    39.94670000    70.56070000
C      45.88410000    48.19900000    57.58950000
C      43.59960000    42.95000000    60.89850000
C      65.62860000    44.46920000    47.58410000
C      69.49980000    28.46620000    47.51880000
C      45.17530000    40.34190000    56.32350000
C      44.15420000    23.43520000    57.60840000
C      67.33120000    22.03990000    41.60460000
C      55.52000000    43.28860000    41.01770000
C      43.12370000    29.49990000    62.34090000
C      54.19670000    25.23790000    39.59330000
C      70.32270000    24.24310000    60.85390000
C      72.87470000    34.72800000    56.33370000
C      54.75990000    43.11660000    65.70190000
C      60.64230000    26.86140000    66.84300000
C      51.77110000    33.84430000    66.11530000
C      66.49970000    30.07540000    69.85950000
C      60.84440000    35.55500000    41.07880000
C      56.88280000    24.92000000    41.62920000
C      48.80990000    23.09920000    64.65930000
C      72.06610000    37.24010000    48.92690000
C      52.14770000    36.03080000    73.02440000
C      54.61290000    46.46020000    56.75860000
C      73.57570000    32.11990000    47.19490000
C      45.87770000    38.49540000    52.95240000
C      60.57070000    26.78040000    70.43500000
C      68.87870000    36.13980000    40.28650000
C      66.33240000    46.12660000    66.45990000
C      72.43580000    42.25680000    52.83990000
C      72.51760000    20.55520000    56.72510000
C      53.69560000    27.96210000    41.76980000
C      58.47760000    20.46630000    67.19990000
C      60.81700000    43.00890000    48.23800000
C      55.52660000    42.42090000    68.74980000
C      62.30140000    21.72580000    59.04240000
C      44.52540000    40.52460000    53.96640000
C      54.38150000    36.92390000    37.42850000
C      69.63900000    17.87990000    60.03040000
C      68.25480000    18.03700000    47.88920000
C      48.00770000    43.75850000    67.02250000
C      56.43310000    36.37930000    38.12600000
C      70.05310000    25.40430000    57.15990000
C      59.80750000    33.09820000    42.94490000
C      63.88870000    44.68890000    46.54630000
C      69.67860000    44.85710000    51.09270000
C      48.33140000    29.54450000    69.04640000
C      62.33530000    30.87710000    67.17210000
C      52.00980000    23.77030000    69.98360000
C      68.08880000    26.77200000    39.15700000
C      56.82320000    23.76980000    48.48070000
C      68.93520000    41.03690000    65.63560000
C      45.49140000    26.37990000    55.66730000
C      59.56520000    34.39750000    36.91960000
C      63.22990000    18.34070000    57.00930000
C      64.66730000    45.15560000    61.96140000
C      49.41460000    31.88400000    71.67670000
C      46.01650000    46.28380000    60.85840000
C      69.21800000    37.52670000    46.69390000
C      43.10210000    32.19620000    52.47630000
C      66.68130000    28.98960000    42.37150000
C      43.61050000    32.15290000    61.70890000
C      77.38450000    26.68440000    57.63240000
C      61.70710000    45.79520000    67.61650000
C      57.11640000    48.26810000    63.56390000
C      56.12240000    20.57370000    46.01150000
C      74.37470000    32.26890000    42.95350000
C      57.00860000    37.84880000    39.42240000
C      54.19360000    46.53000000    67.95190000
C      67.72360000    41.38800000    41.16390000
C      62.64210000    28.54270000    38.28910000
C      52.50540000    22.98640000    64.11740000
C      70.75660000    40.15690000    50.55060000
C      42.47810000    32.57250000    63.65720000
C      67.99930000    26.54330000    67.65450000
C      66.59070000    19.28890000    53.18610000
C      70.82000000    19.18520000    53.95570000
C      73.57390000    33.95570000    45.44240000
C      66.93160000    16.71020000    50.74970000
C      49.60030000    26.68580000    41.29840000
C      45.01670000    31.03660000    56.57430000
C      49.31850000    46.98770000    58.47000000
C      44.72770000    40.16440000    61.18670000
C      43.63160000    41.81990000    57.84280000
C      50.07210000    28.61940000    65.01300000
C      45.69030000    47.72620000    59.74910000
C      66.95690000    23.02800000    58.48580000
C      52.87040000    20.80880000    43.04800000
C      63.29040000    47.16060000    58.97330000
C      66.26760000    42.68350000    61.33940000
C      43.92100000    31.89140000    66.88660000
C      68.31290000    34.99630000    43.22770000
C      50.97630000    24.85910000    64.93100000
C      69.85160000    37.56190000    66.31590000
C      58.05710000    33.42360000    42.01610000
C      56.66990000    33.28340000    73.30180000
C      43.31980000    29.98850000    57.66350000
C      53.30310000    20.55950000    60.96820000
C      58.99650000    16.93880000    50.89680000
C      74.63370000    42.61840000    52.95290000
C      68.70700000    42.18660000    53.10780000
C      50.90330000    21.86980000    49.76270000
C      49.21870000    21.77630000    63.51580000
C      60.89990000    28.77890000    67.96040000
C      66.90600000    23.51490000    41.59610000
C      64.77270000    30.60400000    43.45690000
C      55.35190000    18.58490000    49.85000000
C      67.81590000    23.37590000    49.21930000
C      54.55740000    31.19570000    69.55270000
C      58.92690000    20.86350000    62.98290000
C      69.41240000    43.58100000    67.91640000
C      60.60830000    17.42070000    45.84780000
C      47.35280000    42.38130000    57.00010000
C      68.72010000    24.19570000    53.05560000
C      70.63990000    37.43220000    53.66090000
C      69.35080000    40.46650000    55.44290000
C      56.36140000    30.55200000    73.97400000
C      63.96720000    47.08310000    68.45060000
C      54.58920000    21.15240000    67.48100000
C      52.11950000    47.21770000    54.61190000
C      65.61450000    39.29070000    39.01990000
C      66.81170000    29.69420000    68.41900000
C      50.69300000    21.42620000    67.64660000
C      65.78020000    31.50820000    38.43590000
C      65.29110000    39.59350000    71.08440000
C      56.38290000    30.43720000    37.43140000
C      56.99270000    20.10440000    63.37570000
C      56.66400000    26.46740000    65.49030000
C      45.47620000    36.41170000    62.23070000
C      50.35830000    38.00600000    69.82110000
C      69.30360000    27.36960000    61.49630000
C      69.51150000    19.91180000    59.01740000
C      70.09250000    26.44010000    44.54910000
C      66.63600000    19.98750000    50.20310000
C      43.80900000    31.33690000    59.78900000
C      43.74870000    41.75490000    54.87880000
C      51.18590000    41.06680000    64.18270000
C      50.23940000    37.65900000    38.92850000
C      55.20610000    31.35160000    38.36760000
C      59.25290000    42.31100000    39.23860000
C      57.37460000    45.07910000    62.92830000
C      58.08950000    26.83360000    72.89700000
C      54.70610000    21.45820000    61.28610000
C      60.46980000    48.36970000    61.10980000
C      76.78030000    35.46600000    47.93550000
C      61.20140000    32.92780000    39.86280000
C      63.77320000    47.26660000    63.57790000
C      68.72590000    42.16590000    63.16160000
C      58.34620000    33.67050000    69.39400000
C      60.37830000    29.72020000    43.17480000
C      77.29760000    31.30780000    55.37120000
C      69.43060000    22.47760000    51.91110000
C      61.01890000    34.67360000    70.05880000
C      56.80090000    35.73610000    43.07350000
C      51.35820000    50.46020000    62.42710000
C      71.33310000    23.09630000    50.96950000
C      59.12550000    40.91410000    67.37990000
C      63.38790000    20.57530000    58.05200000
C      58.83510000    39.89060000    38.06000000
C      49.63850000    49.30020000    59.84670000
C      61.05540000    31.71090000    67.83240000
C      48.53800000    43.14470000    62.88870000
C      48.48770000    47.70070000    56.25770000
C      52.32370000    49.07560000    63.75510000
C      50.79360000    23.23670000    63.12870000
C      41.87730000    38.79680000    59.88460000
C      71.40950000    20.01490000    58.94940000
C      58.86330000    34.46380000    71.36140000
C      73.53470000    21.56420000    55.56160000
C      68.13050000    28.83930000    45.83460000
C      43.82730000    36.48880000    60.65720000
C      67.37210000    29.84190000    39.15040000
C      62.10750000    22.45400000    69.80850000
C      59.66580000    19.03380000    67.17600000
C      59.35970000    31.16760000    72.13240000
C      42.07820000    30.56860000    60.67000000
C      45.21610000    37.00860000    63.81350000
C      68.20930000    21.56620000    51.97810000
C      57.30470000    34.71080000    70.31320000
C      78.14260000    33.53290000    54.14210000
C      68.86280000    29.92900000    68.39450000
C      57.58880000    42.16590000    70.14880000
C      57.93430000    43.37740000    64.75440000
C      46.24920000    42.06130000    59.45090000
C      58.91420000    32.53240000    40.00710000
C      42.19780000    25.56630000    59.80340000
C      50.30610000    42.79450000    66.59290000
C      46.94070000    25.60580000    64.80740000
C      66.64570000    38.88800000    69.58290000
C      52.07010000    46.46300000    61.62590000
C      67.53340000    30.27860000    64.29720000
C      74.47200000    41.24050000    54.38340000
C      68.44640000    39.00670000    64.25790000
C      62.69580000    28.70390000    68.48070000
C      62.79790000    16.45970000    58.41720000
C      48.48470000    40.47840000    61.41390000
C      49.83840000    46.20230000    62.16140000
C      54.59050000    27.83310000    39.58870000
C      45.85780000    38.81930000    58.81560000
C      56.09250000    38.79350000    38.69450000
C      57.17360000    32.49820000    39.06410000
C      65.48550000    28.14100000    43.28270000
C      47.28180000    38.92850000    62.65400000
C      71.50810000    20.44740000    47.22150000
C      67.03810000    45.30390000    49.88780000
C      76.00020000    27.43160000    50.20500000
C      66.50900000    26.10990000    42.30220000
C      51.94850000    22.24430000    66.14160000
C      69.24500000    37.20540000    48.32390000
C      73.19390000    39.05420000    54.67920000
C      65.48800000    20.43100000    51.15830000
C      53.52950000    38.77310000    40.20530000
C      57.56980000    16.21620000    50.04130000
C      50.62470000    43.55500000    64.67030000
C      40.81420000    33.30740000    60.34250000
C      76.58080000    33.58970000    59.86910000
C      61.13460000    44.81700000    69.67270000
C      64.62670000    15.57730000    57.73300000
C      74.54260000    37.07340000    46.48680000
C      51.39430000    48.12320000    66.63110000
C      45.32590000    37.04400000    57.85720000
C      71.72810000    35.12290000    55.25850000
C      48.38900000    41.82910000    58.86900000
C      45.74930000    41.63550000    57.50810000
C      43.11150000    38.30200000    61.04960000
C      60.38780000    37.60530000    42.56400000
C      45.90800000    34.26150000    67.90900000
C      51.74410000    31.32800000    41.44960000
C      69.27080000    21.28870000    45.34940000
C      56.83100000    17.64390000    46.90720000
C      47.25840000    23.47150000    63.18670000
C      61.13350000    42.58230000    43.26310000
C      60.84970000    49.96070000    62.40370000
C      59.26430000    30.43440000    38.09290000
C      67.75380000    36.67210000    42.24880000
C      62.25780000    45.70130000    42.24400000
C      71.92060000    41.71980000    54.23940000
C      61.15020000    45.25980000    46.22880000
C      57.14560000    24.17060000    46.25440000
C      66.36790000    19.01540000    54.64990000
C      63.26170000    35.97680000    72.50710000
C      66.83550000    20.87850000    45.82370000
C      64.17590000    26.32080000    41.42170000
C      69.68230000    39.00050000    43.50410000
C      41.09570000    34.82850000    54.26330000
C      58.95140000    34.01390000    40.93570000
C      59.96470000    22.64200000    66.49380000
C      66.19110000    45.01990000    44.90540000
C      44.90130000    34.48200000    50.65170000
C      51.53820000    31.50860000    38.22500000
C      63.94490000    21.47610000    43.76050000
C      54.85720000    23.84070000    48.42040000
C      73.94600000    23.10800000    47.18640000
C      62.10890000    15.16430000    56.55670000
C      70.53580000    26.83650000    51.95620000
C      52.60710000    46.46460000    58.45260000
C      50.69560000    24.81340000    68.76950000
C      64.60780000    41.29630000    64.31440000
C      74.43190000    40.68210000    51.96330000
C      48.02870000    38.36300000    63.98970000
C      56.71180000    42.76270000    67.45380000
C      49.40670000    21.45090000    65.15100000
C      48.32360000    43.77570000    68.73660000
C      42.60810000    39.95580000    64.32120000
C      43.41000000    43.59480000    56.32370000
C      46.52480000    45.44100000    63.52220000
C      73.24360000    29.43440000    45.18640000
C      50.47350000    30.67130000    72.09880000
C      69.84930000    38.10700000    62.89820000
C      61.69680000    42.89190000    71.66740000
C      50.73540000    46.02110000    53.01390000
C      72.19530000    35.06150000    59.23560000
C      76.94150000    31.14880000    51.69280000
C      44.68310000    25.78110000    60.17950000
C      75.03320000    25.86730000    61.13440000
C      72.41180000    27.64010000    60.76580000
C      53.99290000    21.83400000    59.01300000
C      57.27270000    24.21530000    39.48240000
C      70.33410000    23.27020000    42.51360000
C      63.12510000    20.41660000    41.78910000
C      68.22900000    45.95510000    46.21680000
C      57.28610000    18.83550000    49.04400000
C      63.16830000    43.72870000    43.42400000
C      58.28130000    25.43290000    67.27460000
C      76.93600000    28.34840000    55.37140000
C      57.31090000    50.01130000    64.61110000
C      72.21800000    31.12100000    56.75640000
C      53.24000000    37.14120000    38.76710000
C      47.17920000    38.72620000    66.01850000
C      59.70990000    32.94200000    68.27240000
C      63.79230000    41.90930000    46.35540000
C      70.51490000    32.51130000    47.88260000
C      61.26430000    39.57870000    42.42600000
C      51.02010000    24.30040000    40.78950000
C      60.87020000    20.49210000    48.73160000
C      61.37480000    49.77530000    64.72640000
C      52.66780000    19.95100000    65.50800000
C      63.07880000    37.58780000    68.06300000
C      73.96080000    29.32410000    53.86410000
C      69.76950000    21.10500000    48.65620000
C      50.61090000    45.89450000    68.54890000
C      69.34150000    29.68450000    42.58040000
C      63.58330000    33.43640000    39.04020000
C      68.05380000    31.12860000    65.42670000
C      40.75090000    37.34300000    60.74360000
C      59.05960000    41.55010000    72.55350000
C      59.84370000    25.94960000    39.20860000
C      57.07570000    20.73240000    52.18290000
C      76.55580000    25.51200000    59.58920000
C      48.55950000    36.17830000    65.00940000
C      56.70100000    27.44920000    45.17670000
C      64.58620000    24.27840000    63.94310000
C      68.68510000    31.34900000    43.10160000
C      63.11040000    22.86380000    68.60500000
C      61.85700000    22.92670000    43.43410000
C      56.46380000    30.25980000    40.59360000
C      57.92280000    40.13150000    70.94940000
C      49.41460000    25.24310000    62.04020000
C      65.21420000    19.46350000    60.14910000
C      66.62690000    36.90460000    66.59400000
C      60.33030000    39.26370000    73.29790000
C      60.29440000    41.14140000    45.90770000
C      74.04030000    30.78900000    53.15600000
C      67.62960000    23.14320000    60.57030000
C      74.57310000    33.54200000    59.57110000
C      55.73920000    23.95080000    63.33780000
C      51.39780000    43.24800000    51.88180000
C      53.94060000    37.50510000    70.11710000
C      68.95300000    35.00990000    67.65470000
C      52.96020000    28.86640000    43.75680000
C      63.78010000    16.38440000    54.05100000
C      53.42470000    18.99380000    45.12090000
C      45.61610000    31.54060000    68.34010000
C      54.96270000    34.37300000    73.01470000
C      76.07320000    31.55810000    52.97240000
C      60.32730000    39.21190000    68.95920000
C      58.90780000    21.01310000    51.38440000
C      41.89330000    36.36900000    58.47990000
C      63.63040000    20.38410000    54.46710000
C      73.44600000    25.57870000    52.49770000
C      53.50300000    29.51130000    68.64870000
C      65.02090000    15.92150000    59.19880000
C      68.69170000    41.34480000    44.72140000
C      53.03060000    27.02320000    69.63690000
C      69.45420000    17.08350000    56.14680000
C      60.07610000    24.76030000    70.43500000
C      67.57610000    38.05990000    41.56570000
C      72.56550000    23.59690000    56.46140000
C      69.58040000    36.61200000    63.77950000
C      64.24220000    26.90200000    43.43830000
C      56.31730000    49.58240000    60.26750000
C      43.35160000    34.46460000    66.44570000
C      60.88870000    47.41570000    64.71010000
C      59.46830000    26.52110000    41.21790000
C      72.69440000    23.60850000    60.66950000
C      43.91990000    38.28860000    67.01040000
C      69.78790000    22.75310000    45.91530000
C      49.76390000    26.46870000    70.26890000
C      44.78180000    28.32530000    57.37330000
C      65.81300000    45.18010000    68.98700000
C      61.78960000    28.44170000    72.05430000
C      46.38910000    42.64530000    67.84790000
C      42.94800000    25.27830000    57.83480000
C      71.36000000    32.76880000    59.81540000
C      48.23920000    45.10400000    61.81900000
C      58.17180000    31.00650000    73.15730000
C      47.87090000    34.32610000    64.07440000
C      75.72450000    38.39480000    57.05800000
C      69.13540000    24.23440000    54.61090000
C      42.96450000    30.80710000    53.93310000
C      46.64040000    46.17990000    64.89210000
C      58.07080000    47.25180000    55.46550000
C      63.27470000    38.64450000    73.04380000
C      60.49030000    49.12370000    65.88480000
C      59.50980000    37.32400000    67.67710000
C      55.02930000    26.50290000    38.97540000
C      55.36880000    51.73300000    62.78920000
C      69.46380000    43.02000000    50.41990000
C      46.24640000    47.17620000    56.46010000
C      54.80880000    26.47380000    44.58520000
C      57.97500000    25.54730000    38.61740000
C      62.61010000    46.62640000    69.31680000
C      70.24600000    31.86160000    44.36020000
C      59.29180000    42.10010000    46.72830000
C      62.75460000    19.84960000    51.11540000
C      47.16650000    41.78450000    51.72740000
C      46.53200000    24.01950000    64.78270000
C      43.90980000    38.55350000    63.03560000
C      44.97740000    30.27030000    66.33660000
C      67.93320000    37.57010000    65.31950000
C      65.00230000    42.45820000    50.10210000
C      67.59160000    31.95340000    40.15550000
C      47.21450000    24.61160000    42.55020000
C      54.27020000    31.82240000    43.69110000
C      64.95630000    28.62470000    38.62000000
C      50.74940000    30.58250000    66.01870000
C      46.56320000    36.81700000    59.03690000
C      62.94120000    44.17810000    68.39290000
C      44.38360000    33.69790000    58.20580000
C      50.01880000    44.94530000    58.85750000
C      76.81470000    38.57200000    55.89770000
C      71.33180000    38.28740000    44.59360000
C      50.12460000    36.96700000    67.51540000
C      50.40440000    36.70330000    65.28410000
C      51.82970000    18.58250000    48.63330000
C      53.33110000    48.06330000    56.10490000
C      71.53450000    42.53020000    50.98080000
C      46.90620000    26.02550000    41.92380000
C      58.49520000    24.77300000    42.41260000
C      43.33610000    28.45320000    59.92330000
C      76.23500000    36.01550000    50.24880000
C      74.71890000    24.31860000    59.90400000
C      40.34560000    26.70010000    59.13470000
C      56.16540000    38.34540000    72.52790000
C      72.50840000    20.88120000    61.92910000
C      51.57820000    29.74490000    38.57360000
C      61.05270000    41.93080000    65.49510000
C      49.17530000    48.35810000    62.06980000
C      64.48310000    34.52410000    37.27890000
C      66.95980000    44.31200000    59.87220000
C      62.99720000    16.37500000    48.52930000
C      71.57450000    27.98610000    54.55090000
C      77.57690000    32.41900000    49.40020000
C      63.96490000    21.86900000    52.50810000
C      52.60630000    18.07270000    64.67190000
C      56.44650000    44.46610000    68.70130000
C      54.58870000    22.81620000    64.83100000
C      67.85090000    22.76560000    44.20280000
C      72.72870000    32.03370000    50.61040000
C      54.12990000    25.10170000    47.05870000
C      71.92480000    34.83020000    42.14680000
C      57.70660000    23.09710000    68.03220000
C      63.91770000    27.36970000    68.63200000
C      65.41870000    34.31660000    70.91690000
C      66.73660000    27.36880000    40.65000000
C      62.91120000    24.99820000    45.72320000
C      59.49220000    47.76690000    60.09200000
C      67.52250000    17.99580000    60.02130000
C      51.14510000    21.40490000    48.10630000
C      67.30180000    27.28440000    69.56780000
C      45.50620000    27.63900000    63.01600000
C      62.26520000    33.63580000    36.92050000
C      66.75000000    21.09350000    43.73930000
C      48.67420000    23.80840000    58.90920000
C      74.51750000    29.29090000    50.81410000
C      63.33840000    40.40480000    38.72550000
C      43.15030000    24.61930000    63.08100000
C      58.75260000    20.29860000    53.61600000
C      59.29980000    41.78220000    43.69400000
C      54.33470000    26.09790000    41.39460000
C      69.78320000    30.81590000    46.94630000
C      74.71050000    23.64340000    61.93520000
C      76.27750000    33.81880000    48.79750000
C      58.94440000    19.55330000    49.05940000
C      51.51000000    18.03400000    50.48460000
C      71.25480000    37.15690000    47.28180000
C      47.73820000    29.23160000    67.23420000
C      64.00680000    18.02630000    50.80920000
C      74.09100000    39.15980000    51.44650000
C      70.33340000    19.54590000    50.95020000
C      67.13880000    42.76070000    48.91620000
C      54.59920000    45.56270000    52.52620000
C      54.08830000    36.99400000    67.09690000
C      51.67490000    44.81690000    65.70810000
C      54.34330000    33.42070000    70.79640000
C      73.73810000    34.13190000    51.38820000
C      64.16510000    31.70210000    68.94280000
C      71.26750000    31.89340000    40.00280000
C      57.00230000    51.07080000    62.44560000
C      49.05550000    37.86090000    65.25760000
C      67.94800000    20.70090000    60.41600000
C      66.69530000    39.05570000    40.46940000
C      52.61610000    19.65610000    51.31500000
C      58.59100000    47.22540000    58.08820000
C      66.24010000    41.39240000    63.06870000
C      75.30430000    33.85080000    46.39820000
C      48.95980000    25.75840000    65.43700000
C      59.68010000    22.85050000    41.03690000
C      51.87030000    34.82140000    44.47680000
C      66.57120000    28.68330000    44.77310000
C      57.21180000    47.26960000    61.14850000
C      67.92900000    22.88920000    50.71950000
C      57.74180000    23.00760000    44.10290000
C      55.15390000    43.22090000    70.56100000
C      45.57420000    30.23920000    60.76170000
C      57.60060000    22.72630000    65.07850000
C      42.35440000    35.56390000    53.50590000
C      72.02780000    27.91670000    51.08500000
C      69.15140000    45.89760000    49.25930000
C      45.12030000    37.44620000    61.11250000
C      69.39830000    18.67250000    51.92280000
C      45.03130000    30.23280000    54.81740000
C      52.06520000    23.75430000    67.47580000
C      57.00680000    16.21240000    53.58660000
C      64.39450000    39.24790000    69.27940000
C      61.06100000    21.07130000    56.35360000
C      60.79770000    30.88690000    69.81650000
C      64.76030000    30.77460000    67.43930000
C      64.34680000    44.72210000    68.73400000
C      41.00270000    40.35020000    55.51870000
C      71.78620000    23.29260000    48.04630000
C      54.73910000    23.23840000    69.18710000
C      47.32470000    22.88110000    43.83370000
C      68.47620000    28.74630000    65.75290000
C      59.98450000    42.13780000    71.14570000
C      75.11800000    31.93140000    48.21200000
C      53.43850000    31.17690000    66.85010000
C      60.85820000    47.43520000    66.26780000
C      54.83020000    17.88080000    51.71180000
C      48.79460000    32.43790000    40.41180000
C      43.11030000    23.69430000    59.14790000
C      59.48030000    39.24880000    41.04410000
C      45.31960000    32.28460000    58.19290000
C      62.19270000    27.29750000    69.12870000
C      66.00340000    34.84150000    69.56830000
C      60.44090000    20.11440000    43.56360000
C      63.42510000    24.22690000    40.11550000
C      64.23990000    42.20720000    68.95090000
C      76.00000000    37.73950000    53.99640000
C      74.18290000    28.41540000    43.38070000
C      70.92190000    25.86350000    59.43060000
C      57.30690000    19.55390000    67.55550000
C      48.48430000    22.75000000    61.82410000
C      45.31620000    35.31250000    59.71160000
C      60.05960000    15.67400000    51.50910000
C      71.27260000    29.09620000    46.07640000
C      40.51920000    36.27720000    57.00360000
C      63.91400000    37.66400000    42.29740000
C      53.56730000    34.99610000    73.64690000
C      71.21740000    27.28060000    57.00380000
C      55.78540000    23.48860000    65.73000000
C      43.59790000    27.89310000    62.32910000
C      54.54730000    42.37450000    72.01070000
C      62.94710000    29.57070000    73.18150000
C      70.62360000    44.98810000    48.11140000
C      75.37400000    36.46080000    52.66030000
C      65.85650000    22.02670000    56.21000000
C      42.49590000    38.26910000    57.82890000
C      74.76060000    34.33850000    43.70270000
C      67.48470000    17.28050000    54.94430000
C      50.14370000    21.67480000    43.17940000
C      45.02140000    27.91960000    67.09720000
C      70.88760000    26.49000000    42.31020000
C      53.27710000    24.16630000    65.64580000
C      65.02580000    45.74780000    46.87940000
C      69.65980000    27.50450000    43.57160000
C      68.76060000    33.10660000    65.05390000
C      69.27630000    39.99920000    49.96940000
C      65.76640000    32.66400000    37.39280000
C      53.27170000    22.05370000    46.14150000
C      78.09700000    34.26660000    55.99990000
C      55.81180000    28.39240000    66.60560000
C      66.02290000    18.93320000    56.85890000
C      60.38150000    21.08490000    67.76590000
C      68.13580000    34.28050000    69.52460000
C      46.01330000    32.88100000    64.71590000
C      62.17490000    35.14460000    38.14110000
C      64.43450000    28.04030000    71.07040000
C      46.10330000    37.63000000    65.02890000
C      67.16140000    25.40240000    39.34040000
C      69.92980000    41.52270000    46.13150000
C      63.17370000    44.77360000    61.90010000
C      69.89900000    28.16060000    42.15640000
C      64.95600000    42.21960000    44.29890000
C      57.04180000    33.59720000    71.33420000
C      55.53590000    40.11820000    41.45090000
C      66.38660000    35.37340000    40.06170000
C      52.37110000    31.26550000    72.00540000
C      50.55430000    44.12590000    69.84950000
C      46.87830000    30.40880000    69.37040000
C      49.98300000    25.37590000    67.38920000
C      73.62230000    20.78830000    59.23590000
C      53.31250000    46.43340000    59.87340000
C      69.19070000    41.49920000    69.38560000
C      74.33610000    24.65750000    57.44570000
C      59.21220000    18.60120000    44.12900000
C      54.15340000    48.08790000    64.45830000
C      71.48510000    33.95190000    47.84160000
C      44.84240000    39.46480000    66.16560000
C      71.42000000    29.62120000    47.97500000
C      74.79520000    36.53650000    49.41480000
C      48.79190000    41.11550000    50.03800000
C      50.23230000    34.77390000    72.24670000
C      47.61360000    35.61760000    69.48630000
C      51.30230000    50.15240000    59.37230000
C      67.74400000    29.79750000    66.58610000
C      67.98670000    47.07050000    47.32550000
C      54.38480000    45.45750000    70.22080000
C      42.38210000    40.57890000    60.08200000
C      52.26790000    24.45870000    46.85980000
C      49.94190000    46.84410000    67.22830000
C      69.73480000    24.44040000    50.74820000
C      60.45650000    47.99770000    68.62820000
C      66.87680000    18.05980000    49.47330000
C      66.78530000    21.72160000    52.70620000
C      39.45450000    29.22850000    58.36730000
C      70.11150000    21.74110000    62.04190000
C      58.39610000    29.31820000    69.60150000
C      67.26090000    38.69740000    47.47610000
C      42.83000000    37.04560000    63.57760000
C      60.60640000    22.99640000    39.60450000
C      69.72830000    18.98950000    47.53970000
C      74.04630000    29.70240000    57.08470000
C      69.74200000    32.90310000    40.20090000
C      57.16670000    29.31170000    38.72710000
C      60.34980000    19.04120000    45.06360000
C      53.64250000    30.01670000    73.28700000
C      72.21550000    32.25340000    49.02810000
C      68.38140000    20.76060000    43.48630000
C      52.44040000    48.25100000    60.10730000
C      49.37860000    43.06680000    55.31590000
C      58.20070000    36.08450000    39.11190000
C      45.88370000    34.75700000    69.32480000
C      48.93110000    19.31460000    63.77720000
C      57.48140000    38.63510000    71.50610000
C      70.92280000    26.83140000    53.69340000
C      65.52040000    26.64920000    65.25040000
C      49.97390000    46.28000000    56.12610000
C      64.10300000    35.42350000    40.50020000
C      69.00950000    36.75610000    69.92480000
C      72.15250000    31.47210000    46.74060000
C      55.54580000    24.31060000    71.18080000
C      48.67760000    27.17290000    68.64920000
C      59.97640000    28.37720000    69.08120000
C      73.66560000    30.22580000    42.29100000
C      45.62160000    40.92810000    68.01940000
C      60.75840000    38.73290000    44.19050000
C      69.44050000    17.26840000    57.98120000
C      73.34440000    34.70990000    47.29710000
C      59.96250000    20.03470000    54.99140000
C      59.94770000    26.61870000    37.85340000
C      43.65850000    26.93570000    65.36520000
C      51.88060000    20.54290000    62.15070000
C      50.80950000    18.35860000    47.33080000
C      61.89970000    17.22950000    54.39140000
C      75.65610000    32.07660000    59.83760000
C      64.34160000    23.59460000    46.11440000
C      55.03940000    36.38220000    72.80780000
C      53.16000000    23.75890000    45.77290000
C      58.30660000    50.35940000    66.02750000
C      61.11830000    43.79410000    64.10470000
C      43.83280000    26.40130000    58.97450000
C      59.76220000    36.92470000    69.88420000
C      46.07630000    21.83690000    63.76770000
C      63.62820000    24.73680000    69.54960000
C      71.55320000    38.83990000    50.00780000
C      62.95940000    15.64590000    51.84450000
C      73.25220000    31.33470000    54.52370000
C      72.46140000    27.38580000    55.79910000
C      60.75000000    23.08880000    47.99450000
C      67.43470000    36.90820000    44.69920000
C      52.60560000    34.03300000    39.71980000
C      50.59320000    27.68780000    40.49000000
C      71.84610000    43.14240000    49.53960000
C      59.63100000    45.32710000    68.31360000
C      61.06710000    36.38560000    71.87460000
C      73.17300000    38.11030000    43.27730000
C      59.36940000    43.00610000    44.75300000
C      64.34020000    20.52260000    49.51580000
C      60.30380000    51.32440000    64.33810000
C      63.31550000    34.35410000    71.55540000
C      47.74880000    35.11650000    62.24820000
C      72.90850000    30.43010000    58.25020000
C      68.30500000    45.02580000    65.91280000
C      72.13010000    27.75760000    46.16080000
C      61.91500000    32.48980000    72.92050000
C      47.62300000    22.81930000    57.50860000
C      64.26230000    37.24950000    66.64480000
C      52.30920000    31.65940000    44.40010000
C      70.53240000    21.39990000    55.25140000
C      69.20980000    29.99220000    45.02200000
C      63.24630000    35.40350000    42.44900000
C      65.13140000    30.30090000    37.33030000
C      51.08440000    39.07600000    72.15340000
C      62.81930000    43.05030000    40.10920000
C      60.53070000    48.91290000    59.31250000
C      48.88730000    29.77370000    62.87130000
C      45.21580000    41.60610000    65.52860000
C      62.75970000    24.45960000    70.82540000
C      64.75420000    44.76310000    64.21330000
C      47.62180000    36.93370000    68.17360000
C      49.35250000    26.87540000    43.79780000
C      70.08280000    24.61960000    41.35870000
C      74.88080000    31.12810000    58.85220000
C      49.32730000    30.69520000    44.88290000
C      50.40630000    24.11880000    61.92840000
C      47.81280000    25.49530000    62.29430000
C      59.75060000    42.33620000    66.64570000
C      59.79370000    36.27290000    43.19120000
C      61.81410000    48.40890000    60.23260000
C      56.64980000    22.19760000    42.45760000
C      70.92450000    24.70290000    55.93000000
C      65.32130000    47.98910000    63.18460000
C      55.18900000    40.97670000    44.40230000
C      60.39540000    21.10800000    58.00130000
C      57.23910000    41.39090000    38.61690000
C      48.32230000    35.11380000    66.15350000
C      72.03890000    22.09920000    51.87750000
C      56.41240000    22.83290000    40.68200000
C      47.53480000    41.01440000    69.64450000
C      59.86580000    40.05530000    71.94840000
C      59.79760000    16.12630000    49.54690000
C      55.79400000    24.92390000    47.03680000
C      60.43560000    30.41610000    36.95740000
C      51.70310000    24.86340000    43.93290000
C      65.58750000    39.05560000    42.46780000
C      61.28610000    41.99720000    67.70420000
C      58.70500000    45.55350000    64.08600000
C      60.68700000    34.93510000    38.98380000
C      66.12310000    18.40340000    59.43380000
C      77.75210000    28.33390000    52.98030000
C      59.14560000    38.54010000    70.47070000
C      52.80850000    25.71380000    66.54150000
C      54.04740000    41.12350000    68.01340000
C      67.52070000    32.83440000    42.37920000
C      50.04990000    24.31940000    42.42520000
C      55.65380000    35.78650000    40.13710000
C      60.87140000    31.79300000    41.85810000
C      64.41190000    19.38610000    43.21190000
C      68.05970000    19.44500000    50.52770000
C      49.72610000    34.26890000    42.27210000
C      55.22850000    43.61920000    63.91360000
C      65.00090000    46.22690000    43.90380000
C      40.52150000    35.42280000    58.23970000
C      57.48770000    20.78970000    42.02220000
C      57.27250000    22.75350000    63.58010000
C      59.91130000    22.03330000    69.79670000
C      71.67260000    34.44810000    40.51700000
C      67.91260000    20.93540000    53.73670000
C      43.99670000    34.76450000    61.86740000
C      60.50380000    19.54050000    52.50970000
C      66.22140000    16.83340000    55.82080000
C      64.54820000    18.02790000    45.25210000
C      61.24160000    20.33090000    44.86510000
C      52.30980000    33.51070000    42.00040000
C      64.50680000    18.88970000    58.88630000
C      71.45010000    40.22870000    46.52400000
C      45.04530000    44.31540000    57.12540000
C      55.43170000    46.33460000    53.63970000
C      56.91770000    40.09800000    43.60740000
C      44.54810000    46.53990000    59.74940000
C      46.07020000    35.93400000    65.18150000
C      52.00970000    47.26150000    67.93200000
C      52.63930000    29.63180000    71.73780000
C      49.98930000    42.44770000    52.51800000
C      57.77870000    17.38370000    52.96950000
C      59.07590000    45.50400000    70.62730000
C      68.14230000    25.71690000    46.40530000
C      75.69290000    23.98440000    50.77650000
C      50.86750000    24.16810000    48.03320000
C      70.62040000    29.65360000    43.64100000
C      42.90330000    39.70320000    62.64420000
C      65.03750000    33.43300000    40.36180000
C      54.84110000    35.40700000    43.30040000
C      68.71300000    23.80620000    56.06510000
C      57.25640000    21.07030000    64.70270000
C      74.00590000    37.45030000    56.42630000
C      40.01990000    30.07030000    56.01840000
C      47.64950000    23.10400000    66.89390000
C      47.43250000    25.88480000    67.08130000
C      57.41700000    21.19450000    69.09560000
C      64.14890000    48.08330000    61.81120000
C      62.71200000    47.36080000    67.27830000
C      68.41220000    24.31350000    41.82560000
C      67.26620000    43.73200000    50.31920000
C      61.54510000    40.39280000    39.49060000
C      70.46150000    39.31340000    51.90140000
C      53.19840000    23.13480000    40.98260000
C      71.36940000    30.32150000    59.66340000
C      58.29070000    29.86840000    43.60250000
C      62.15940000    40.81850000    65.71290000
C      70.22740000    42.08070000    53.36620000
C      65.97370000    21.23850000    48.99990000
C      47.08470000    33.58460000    66.09040000
C      70.57060000    42.94640000    44.73050000
C      57.55010000    34.16320000    36.95990000
C      44.67160000    29.44970000    62.79830000
C      54.53550000    37.87370000    41.81650000
C      73.55610000    27.57540000    44.63830000
C      62.37480000    19.35320000    48.94670000
C      45.05980000    34.35350000    54.89650000
C      69.55780000    29.22070000    70.21310000
C      60.95730000    19.03390000    56.48670000
C      54.68410000    28.97900000    44.48850000
C      56.41470000    39.96600000    73.04380000
C      62.27920000    21.26960000    49.51710000
C      47.43590000    28.58790000    41.77420000
C      50.11210000    20.81460000    60.68070000
C      41.47170000    26.74970000    62.07930000
C      51.31770000    22.02400000    59.34670000
C      55.10540000    38.88000000    71.10240000
C      68.66010000    41.24250000    67.20730000
C      46.83240000    43.81300000    61.38770000
C      50.28560000    40.61770000    71.40350000
C      53.52720000    42.19750000    70.77850000
C      67.57280000    38.88920000    67.77910000
C      66.69330000    19.39600000    48.58750000
C      58.34020000    22.38980000    48.05850000
C      61.13890000    21.85410000    51.03580000
C      71.35260000    40.86300000    43.35730000
C      46.44240000    39.69370000    53.88270000
C      72.91170000    28.72270000    49.35540000
C      73.07740000    36.88290000    52.44730000
C      70.67080000    23.05810000    49.16490000
C      54.80310000    23.44050000    41.79820000
C      56.65450000    50.24050000    65.96260000
C      64.96840000    26.36450000    45.23320000
C      52.98390000    22.90060000    42.47350000
C      63.07870000    25.90430000    71.63380000
C      58.99110000    42.80710000    40.67030000
C      39.27260000    35.89620000    55.75090000
C      61.85240000    43.54740000    44.29550000
C      58.38920000    35.18940000    69.29700000
C      67.97530000    16.63380000    58.28170000
C      46.67550000    39.39890000    68.18610000
C      49.46790000    44.65910000    56.16360000
C      63.24240000    41.14420000    71.02830000
C      74.61350000    27.02920000    46.70760000
C      76.00160000    40.49140000    55.72610000
C      68.17410000    37.26110000    67.90430000
C      65.18450000    17.61610000    54.63030000
C      52.03730000    33.51150000    72.07070000
C      50.57220000    31.83070000    42.91360000
C      70.70690000    24.37990000    47.10440000
C      56.74260000    47.45920000    69.04300000
C      73.37860000    36.18870000    42.57800000
C      46.93700000    21.98980000    65.07880000
C      50.12910000    42.27180000    63.81990000
C      48.73660000    33.91950000    68.90170000
C      55.89410000    20.11430000    54.86550000
C      74.18620000    28.35660000    47.28410000
C      65.71660000    37.79130000    72.56690000
C      70.77560000    34.33950000    70.05990000
C      47.20890000    24.19810000    55.26830000
C      54.23620000    27.13100000    67.72610000
C      60.27050000    21.63460000    52.30110000
C      48.13440000    32.53240000    69.53630000
C      52.81800000    35.08850000    37.58140000
C      49.04450000    27.58390000    63.54820000
C      76.08350000    28.79160000    60.82670000
C      38.92610000    32.52740000    56.72520000
C      50.80050000    19.45810000    65.54270000
C      73.69120000    27.14990000    50.10120000
C      65.69640000    28.67640000    72.01030000
C      53.08480000    51.38460000    61.85910000
C      68.57410000    38.46400000    48.78880000
C      74.17170000    36.33890000    51.04820000
C      52.70140000    37.12470000    68.75610000
C      61.70860000    45.56720000    63.48780000
C      70.47180000    17.66840000    54.86400000
C      57.89920000    48.96250000    59.47580000
C      65.61730000    39.16850000    67.60480000
C      53.31610000    35.68780000    43.83370000
C      40.34450000    38.72760000    57.10050000
C      51.09600000    30.82140000    39.59930000
C      64.06890000    49.13440000    64.42260000
C      52.14420000    37.79240000    70.60980000
C      59.67550000    28.27480000    40.52380000
C      58.99140000    50.96620000    62.95380000
C      62.33000000    21.91180000    44.51030000
C      55.16500000    34.22130000    42.14240000
C      55.67770000    25.37340000    42.87750000
C      52.59510000    36.67430000    66.59820000
C      64.79470000    35.31160000    67.89040000
C      52.95840000    30.60710000    42.26390000
C      71.82510000    22.65510000    55.19920000
C      53.85760000    39.63700000    70.70480000
C      44.49590000    22.37900000    62.50980000
C      64.56620000    44.62250000    43.43350000
C      67.65770000    42.53450000    67.09940000
C      68.01760000    43.19070000    64.69410000
C      47.48640000    45.60630000    57.29310000
C      50.20080000    29.42400000    41.24360000
C      69.63360000    32.17380000    68.27170000
C      59.94020000    43.35410000    42.47470000
C      66.11520000    25.78830000    68.13280000
C      55.51980000    19.16250000    44.56050000
C      45.80130000    38.69400000    62.18370000
C      48.31210000    27.76080000    61.35570000
C      50.39610000    39.33720000    64.55530000
C      74.79150000    29.62880000    45.66240000
C      49.58780000    29.00950000    67.33290000
C      64.48910000    31.65990000    42.22710000
C      50.07140000    27.82380000    70.93220000
C      44.82500000    34.84180000    66.78050000
C      65.27250000    43.77640000    46.20510000
C      66.04690000    23.36650000    45.60440000
C      61.70290000    26.97340000    37.65230000
C      52.61780000    21.63590000    60.14800000
C      64.39630000    26.52970000    70.38560000
C      64.13840000    29.45480000    40.35410000
C      39.85160000    31.83150000    55.64220000
C      71.84240000    41.85040000    44.87860000
C      60.60870000    30.19600000    38.99030000
C      48.90690000    36.49480000    66.67250000
C      70.26070000    29.49740000    61.39580000
C      56.11100000    46.45570000    67.09590000
C      59.33380000    15.13260000    53.84080000
C      54.41440000    16.52510000    53.07830000
C      63.93120000    45.23590000    60.28400000
C      52.54210000    42.16440000    69.35630000
C      64.90280000    29.30490000    68.03140000
C      66.27300000    25.36950000    46.80600000
C      66.40110000    31.98150000    70.27820000
C      46.30080000    37.43130000    54.22680000
C      53.18560000    34.22650000    67.04710000
C      67.89400000    27.08100000    45.16460000
C      51.38480000    29.05590000    44.21860000
C      56.79280000    45.40840000    70.54320000
C      77.92630000    28.55500000    57.09860000
C      41.87110000    31.29900000    55.37000000
C      69.44810000    20.78400000    57.73930000
C      53.64930000    29.60220000    38.04630000
C      76.12930000    27.76000000    46.93720000
C      73.06550000    33.11700000    53.69100000
C      53.03040000    35.84600000    67.90500000
C      58.72800000    32.72240000    74.35970000
C      60.88490000    25.92310000    72.21750000
C      57.95560000    18.25340000    50.32930000
C      58.94750000    24.17320000    44.02210000
C      53.29510000    39.23950000    67.43210000
C      48.86840000    22.98770000    45.75920000
C      64.97480000    24.54890000    70.20940000
C      70.77650000    19.62160000    62.33080000
C      57.82630000    39.92080000    68.91320000
C      59.98210000    25.36160000    67.13530000
C      67.49790000    17.82300000    51.59830000
C      45.79040000    26.24380000    57.19050000
C      72.43390000    25.01280000    49.64120000
C      56.71340000    38.15860000    41.61130000
C      71.20000000    38.96590000    55.54870000
C      59.67720000    17.17240000    53.80330000
C      64.26460000    34.58180000    69.20860000
C      61.67630000    24.69650000    40.86820000
C      67.12240000    21.61090000    57.07320000
C      57.14840000    24.70280000    71.67930000
C      69.77960000    41.38460000    51.09780000
C      40.16160000    37.38060000    58.87370000
C      42.71070000    36.02330000    65.56620000
C      56.38740000    30.39290000    70.84090000
C      50.16640000    44.33450000    66.71850000
C      74.01880000    21.58210000    50.82130000
C      56.40740000    27.24730000    39.53720000
C      62.01790000    17.19470000    57.05840000
C      59.51270000    38.28260000    37.51550000
C      42.72170000    36.96980000    54.72110000
C      63.24920000    42.83380000    66.62150000
C      71.67330000    40.10810000    54.49970000
C      76.98280000    34.78470000    54.93100000
C      66.92730000    33.57970000    66.68370000
C      48.59220000    48.36130000    63.95830000
C      53.47450000    34.79520000    71.52240000
C      49.02910000    24.52730000    45.68930000
C      61.72430000    24.67330000    44.55710000
C      68.13700000    28.88140000    69.77820000
C      51.78940000    38.32950000    38.43990000
C      65.15850000    27.29420000    40.14120000
C      61.65220000    21.86600000    48.07940000
C      73.70560000    22.86250000    62.79710000
C      45.05540000    45.79660000    62.93000000
C      73.35690000    24.71450000    55.63780000
C      44.07700000    39.83590000    59.00620000
C      52.65150000    26.13080000    45.24900000
C      61.60690000    28.24550000    66.24030000
C      45.96660000    42.82210000    53.01990000
C      43.61390000    36.00000000    57.05780000
C      55.07240000    16.64240000    49.31430000
C      56.21820000    21.53600000    50.51160000
C      70.36110000    27.29290000    50.24320000
C      51.68800000    44.33110000    62.85730000
C      43.05120000    34.50200000    54.80620000
C      54.78290000    49.42880000    59.31640000
C      75.45180000    22.47420000    54.57070000
C      60.18430000    21.01000000    41.19140000
C      74.50090000    42.00620000    50.54640000
C      47.75520000    26.90930000    40.96100000
C      63.04530000    41.97820000    44.58300000
C      55.13040000    29.53640000    37.79410000
C      64.25860000    40.03120000    67.80110000
C      59.41030000    22.54630000    44.03620000
C      72.07380000    32.87950000    57.39610000
C      71.16350000    35.92730000    48.30160000
C      46.07770000    29.54490000    64.42840000
C      57.05630000    21.52610000    48.30780000
C      59.29540000    15.98450000    55.10090000
C      41.90360000    27.22990000    57.18390000
C      64.57990000    37.21310000    37.93960000
C      69.72710000    19.85340000    45.88680000
C      71.59260000    30.79300000    42.95860000
C      55.69180000    47.87630000    57.38990000
C      48.33340000    20.94030000    60.95780000
C      69.07640000    33.86280000    63.05340000
C      76.05960000    30.16020000    57.70040000
C      75.62260000    27.49420000    56.81180000
C      69.12130000    30.73170000    67.10250000
C      63.64210000    43.46730000    70.90850000
C      47.93610000    37.25770000    69.64170000
C      71.74930000    27.00160000    58.90260000
C      74.06970000    33.64640000    56.96790000
C      60.50170000    20.31340000    46.82510000
C      49.98770000    33.08520000    67.20900000
C      65.07890000    36.07410000    44.27740000
C      47.55570000    30.89100000    63.33730000
C      52.66450000    19.18340000    62.47410000
C      52.53680000    44.03470000    70.69760000
C      42.30150000    41.59330000    62.35080000
C      54.34520000    32.58890000    37.29480000
C      43.01260000    30.42310000    56.08690000
C      63.78240000    30.15280000    42.22450000
C      62.73740000    49.04380000    66.97080000
C      49.16820000    39.20710000    70.07500000
C      64.23650000    46.57820000    45.72320000
C      46.86460000    26.16880000    54.21550000
C      57.94480000    41.99380000    65.69450000
C      41.24460000    28.97460000    56.02630000
C      73.82630000    39.90680000    53.38270000
C      68.92590000    39.12480000    41.64670000
C      75.45000000    36.60110000    55.21160000
C      50.57240000    25.02020000    45.71190000
C      56.41250000    48.00300000    55.22890000
C      66.43700000    39.99060000    44.94160000
C      51.49850000    29.79820000    42.84860000
C      53.92660000    20.30070000    63.03650000
C      61.38090000    34.07940000    72.06040000
C      43.77400000    38.08070000    59.66970000
C      47.86040000    34.55890000    70.81520000
C      77.51070000    36.26760000    52.62090000
C      46.84210000    29.46810000    60.52390000
C      67.48500000    20.72020000    49.13780000
C      55.50820000    48.29770000    60.32360000
C      59.38850000    43.93120000    65.61950000
C      46.83770000    37.35120000    51.17270000
C      60.96830000    41.50660000    72.33370000
C      69.01900000    21.22060000    47.32210000
C      64.41180000    30.99690000    70.85300000
C      48.05540000    42.18210000    53.08370000
C      59.81060000    24.20800000    68.79520000
C      70.98700000    18.14270000    57.62790000
C      60.78660000    28.51880000    39.30440000
C      54.42020000    28.24390000    69.61680000
C      43.52930000    27.52650000    63.86600000
C      41.20090000    30.06590000    57.44960000
C      59.53850000    41.57540000    69.24730000
C      57.84620000    45.80600000    67.94010000
C      43.17890000    29.34180000    54.86400000
C      61.49440000    42.60030000    46.17770000
C      43.64040000    43.50780000    63.33530000
C      64.33430000    38.53400000    40.51190000
C      58.61950000    22.36690000    61.57300000
C      58.28770000    49.41150000    61.46780000
C      46.47580000    32.54630000    69.44110000
C      59.27840000    47.98260000    67.34790000
C      73.57450000    35.54210000    53.02870000
C      52.94760000    20.95030000    58.38250000
C      69.25930000    34.29710000    71.18000000
C      58.33450000    31.42110000    37.16020000
C      52.17520000    40.63640000    40.31120000
C      71.26850000    29.65350000    40.22830000
C      64.56660000    22.94450000    68.12690000
C      50.82410000    47.67880000    59.58460000
C      44.23900000    44.71030000    58.89140000
C      61.43080000    33.49000000    41.91800000
C      47.34840000    47.58180000    60.62880000
C      72.00600000    40.60200000    47.94780000
C      44.07690000    46.33290000    57.26790000
C      69.22140000    20.47910000    54.32080000
C      66.20930000    43.13770000    68.85140000
C      53.04980000    40.27060000    72.46750000
C      47.18890000    39.81120000    55.66530000
C      58.23060000    32.19470000    43.16550000
C      74.91350000    23.31530000    49.25620000
C      62.76960000    46.67440000    61.03570000
C      64.62330000    21.06950000    58.94450000
C      67.14050000    39.66250000    63.65830000
C      58.29010000    35.35870000    43.07600000
C      66.30020000    28.86550000    40.02520000
C      53.51520000    38.49410000    68.78550000
C      51.78370000    32.17130000    40.19280000
C      44.12700000    34.74600000    63.93690000
C      61.74240000    17.57150000    52.14770000
C      66.63900000    31.36860000    72.28440000
C      74.58750000    43.29350000    54.63390000
C      43.41350000    30.15140000    64.68150000
C      73.50320000    26.50000000    43.43660000
C      55.38920000    50.24630000    63.56500000
C      62.95620000    39.00170000    39.16720000
C      65.96770000    21.78780000    59.65180000
C      56.89040000    44.36610000    41.71650000
C      63.26420000    18.43620000    53.40190000
C      64.56090000    31.04810000    40.21820000
C      61.68710000    22.04190000    64.20450000
C      75.81780000    40.47840000    53.83620000
C      56.38380000    43.78700000    65.42270000
C      63.22530000    47.28420000    65.62200000
C      49.25170000    28.51240000    44.35640000
C      67.40020000    23.32880000    52.54300000
C      62.10830000    38.72730000    66.78050000
C      49.71020000    34.48920000    64.62180000
C      51.82890000    25.68620000    69.71870000
C      48.00350000    21.40990000    44.82180000
C      68.85980000    17.52390000    50.76570000
C      46.42750000    42.48260000    64.64930000
C      73.91450000    31.54120000    51.53850000
C      77.40220000    28.74890000    50.18460000
C      68.69580000    39.15190000    62.10050000
C      76.86280000    38.02380000    58.03330000
C      52.05980000    41.90110000    71.61840000
C      64.64180000    20.58960000    56.55790000
C      69.16790000    26.80080000    48.42280000
C      52.98280000    42.20610000    64.44990000
C      52.25300000    44.47470000    60.90830000
C      53.47440000    35.24770000    40.53100000
C      69.97990000    18.58250000    49.02140000
C      55.65370000    28.08490000    72.09690000
C      60.46990000    36.36510000    38.13220000
C      61.85140000    36.23230000    39.26960000
C      72.22270000    33.00030000    55.59790000
C      72.27790000    21.59270000    46.49310000
C      52.70130000    33.77920000    69.06820000
C      62.75510000    16.21360000    55.55130000
C      58.61840000    27.91510000    38.69880000
C      53.07330000    22.94580000    50.76390000
C      57.21250000    38.45550000    37.51250000
C      73.27240000    21.48500000    48.61490000
C      55.69270000    47.74190000    61.83840000
C      40.15440000    28.54790000    60.34880000
C      63.87400000    15.99870000    50.53130000
C      72.31140000    35.53520000    51.13700000
C      44.95120000    32.24350000    53.48020000
C      52.89530000    37.32530000    42.16240000
C      45.07320000    38.14840000    68.37320000
C      74.56490000    39.12620000    48.66900000
C      54.37050000    32.06300000    72.79700000
C      67.60860000    37.35400000    71.83340000
C      43.69750000    35.56180000    51.99370000
C      58.43460000    22.47550000    45.98360000
C      59.09800000    45.64640000    66.81160000
C      75.65170000    34.13190000    50.59710000
C      50.27320000    20.10330000    44.88880000
C      47.30670000    32.87670000    63.18100000
C      52.85800000    48.44840000    65.14810000
C      42.46660000    33.09590000    65.28350000
C      43.16140000    37.77740000    56.56920000
C      56.66390000    18.46470000    52.69020000
C      63.38900000    23.94420000    44.04220000
C      47.14210000    40.89250000    66.56490000
C      57.22800000    18.13210000    54.25980000
C      64.89790000    23.92620000    39.39890000
C      62.90180000    21.90250000    51.19440000
C      51.07260000    24.74070000    63.33370000
C      66.20670000    30.30950000    66.56660000
C      54.36560000    19.54430000    50.51120000
C      62.52960000    24.88590000    43.17370000
C      75.81570000    38.00570000    51.84280000
C      51.64790000    28.67360000    40.92660000
C      55.30760000    45.75150000    68.85970000
C      77.38100000    35.23960000    59.74450000
C      55.09610000    20.99880000    49.33350000
C      51.56660000    20.34530000    67.03990000
C      48.93250000    37.87410000    67.78570000
C      75.53220000    35.26110000    45.15770000
C      46.92830000    45.20310000    66.34570000
C      62.87030000    21.30410000    56.70870000
C      57.76350000    51.55570000    63.96760000
C      64.95820000    22.92480000    60.40810000
C      75.74620000    31.19290000    50.49320000
C      72.27090000    41.53680000    55.77900000
C      61.86550000    48.79420000    62.05730000
C      51.57490000    35.75430000    40.20350000
C      59.00050000    38.77330000    67.13960000
C      70.83810000    24.06360000    43.88220000
C      70.02780000    32.60870000    42.84080000
C      59.76610000    48.22010000    57.91340000
C      65.36350000    30.06540000    41.60870000
C      61.79490000    39.14440000    37.92670000
C      48.99360000    21.20510000    59.59230000
C      48.72850000    49.60490000    61.23780000
C      56.77930000    36.99600000    73.99010000
C      65.55830000    43.97910000    65.85090000
C      69.80890000    39.20840000    54.31430000
C      58.34070000    46.64330000    60.30840000
C      50.60930000    23.71330000    59.05130000
C      62.24910000    36.24200000    67.52810000
C      77.99660000    33.21070000    52.41420000
C      64.66460000    46.06750000    66.11800000
C      72.14550000    26.20540000    45.38310000
C      57.38630000    22.14710000    51.39030000
C      59.02060000    34.40460000    74.36420000
C      72.04920000    24.56200000    54.91490000
C      59.30330000    25.11880000    71.95440000
C      45.24160000    29.21740000    59.63440000
C      55.05590000    45.17980000    61.73780000
C      42.15970000    31.53010000    57.90820000
C      46.08290000    43.68000000    62.81980000
C      52.57520000    35.83230000    69.93180000
C      64.12360000    21.88460000    41.96540000
C      45.51630000    44.30390000    60.34210000
C      42.87880000    37.62010000    65.66000000
C      46.25310000    28.01600000    58.15300000
C      59.99710000    31.33690000    39.94480000
C      65.18570000    37.65080000    43.93740000
C      72.47630000    22.15770000    57.86710000
C      41.00080000    35.12650000    60.13940000
C      71.36760000    42.32530000    46.98590000
C      51.03060000    27.03790000    42.88490000
C      74.22750000    21.10830000    53.12670000
C      42.88460000    33.04970000    55.76030000
C      42.37390000    34.59850000    57.93680000
C      66.65310000    19.80400000    59.72610000
C      59.55680000    22.90050000    67.97390000
C      55.35630000    20.17570000    66.59950000
C      51.45420000    20.56060000    58.62390000
C      61.90900000    50.39220000    63.43410000
C      63.73090000    20.00100000    45.64050000
C      46.15410000    27.90560000    60.39950000
C      64.83920000    43.17710000    42.21920000
C      72.65960000    27.88020000    43.38580000
C      53.55180000    22.95260000    48.27800000
C      71.57720000    22.93670000    61.71280000
C      66.01370000    37.45010000    40.61550000
C      50.79140000    32.11360000    72.49920000
C      47.21040000    34.07980000    69.05120000
C      57.81980000    25.52050000    64.83170000
C      72.72260000    19.52610000    53.31040000
C      52.27330000    44.77040000    67.51460000
C      44.56660000    40.06080000    52.43630000
C      58.84170000    32.14180000    69.27480000
C      66.84320000    45.44840000    65.06040000
C      50.54690000    42.67090000    61.95820000
C      61.15660000    46.73450000    61.94910000
C      39.57730000    31.02530000    59.78790000
C      65.03810000    17.98640000    52.06850000
C      57.37730000    44.59880000    66.28090000
C      53.64180000    23.96800000    64.20210000
C      48.22270000    25.02680000    68.65690000
C      70.30850000    39.53690000    48.37740000
C      53.98550000    22.04520000    41.69260000
C      48.28830000    40.22610000    52.72730000
C      76.36310000    24.05960000    56.93560000
C      45.74950000    29.78150000    68.25270000
C      52.04260000    28.15920000    66.14850000
C      72.62310000    33.31040000    59.14720000
C      50.79780000    46.79150000    57.70060000
C      68.48010000    30.00720000    71.12190000
C      75.52630000    32.21080000    44.56320000
C      74.81670000    35.18960000    54.66710000
C      72.35460000    39.99440000    51.27660000
C      62.27280000    34.57570000    73.88750000
C      47.80920000    43.78810000    65.14770000
C      73.97460000    32.66790000    58.24290000
C      60.15990000    25.14300000    40.68730000
C      74.09020000    37.26070000    48.18230000
C      66.04230000    18.47660000    45.17780000
C      77.40470000    30.05760000    49.22600000
C      74.22080000    35.18700000    59.61420000
C      65.90100000    22.07820000    54.51030000
C      40.58290000    33.72710000    62.25350000
C      58.28570000    17.95710000    45.47410000
C      72.17160000    22.42190000    59.64200000
C      48.31680000    25.29410000    41.42820000
C      61.94650000    36.03520000    69.66700000
C      75.81090000    34.58340000    57.98630000
C      48.07800000    31.16190000    70.59470000
C      53.65490000    51.00930000    63.27840000
C      72.98120000    44.98040000    52.68240000
C      52.18040000    45.32170000    69.71460000
C      56.58990000    41.65310000    72.47730000
C      58.49260000    29.28250000    39.44140000
C      70.66650000    37.75570000    40.79460000
C      66.05650000    37.35710000    70.32020000
C      60.38900000    43.50800000    69.36790000
C      45.95810000    35.02030000    63.14360000
C      54.85590000    30.93680000    67.41790000
C      76.00350000    30.40980000    47.98630000
C      49.43270000    42.69960000    68.80050000
C      58.37310000    43.86610000    70.39770000
C      56.74350000    26.08900000    68.93620000
C      61.56020000    24.14740000    66.16220000
C      43.90580000    23.89080000    61.27260000
C      68.29280000    26.22370000    40.67870000
C      67.75170000    30.84060000    41.41140000
C      64.82660000    44.95090000    49.10840000
C      43.76500000    39.26160000    57.41820000
C      52.76520000    39.72090000    38.56750000
C      71.72980000    25.10130000    42.39880000
C      56.39890000    34.03240000    37.97860000
C      67.60180000    19.78070000    58.15180000
C      71.23880000    35.84430000    57.68990000
C      75.44970000    29.32830000    47.05280000
C      51.14760000    30.67060000    70.13670000
C      71.48750000    39.24590000    42.26300000
C      59.72880000    24.75890000    65.60650000
C      67.00280000    35.73550000    38.19100000
C      61.12810000    21.33700000    69.18650000
C      72.84410000    36.23250000    47.18990000
C      51.99000000    27.85070000    71.97270000
C      46.47590000    41.48040000    61.20420000
C      58.42860000    26.87720000    65.87720000
C      64.81010000    15.46470000    55.81450000
C      67.11020000    20.38210000    55.09510000
C      46.58800000    23.88260000    57.96770000
C      66.73250000    31.57010000    67.76900000
C      71.32400000    30.67440000    41.39130000
C      52.52950000    17.15160000    49.05800000
C      71.68740000    37.53500000    57.37520000
C      53.78600000    21.43850000    51.61870000
C      74.58920000    25.92650000    45.32570000
C      50.38110000    25.72210000    43.91920000
C      72.49830000    30.06810000    50.44400000
C      72.60570000    19.22600000    55.19190000
C      41.61850000    37.95110000    63.07370000
C      52.15320000    31.85340000    66.20110000
C      71.67060000    22.65140000    44.36080000
C      74.87430000    39.65110000    47.17430000
C      72.01750000    31.55750000    52.59640000
C      73.83430000    31.09780000    45.69400000
C      64.14630000    21.16730000    47.85290000
C      52.53140000    19.68640000    46.19270000
C      50.96330000    40.63660000    69.39230000
C      56.39890000    49.08790000    61.71460000
C      46.28930000    42.48310000    55.82240000
C      53.97030000    26.37750000    45.98260000
C      48.19190000    31.53670000    66.64220000
C      47.05340000    31.40080000    65.58780000
C      52.89570000    47.44120000    62.73940000
C      63.36800000    23.78580000    66.62670000
C      46.50400000    24.09050000    61.07130000
C      52.10660000    45.77080000    62.99960000
C      75.29530000    36.51920000    47.67790000
C      65.84790000    41.44020000    67.54330000
C      61.03480000    31.36040000    71.94270000
C      70.91260000    18.42370000    59.18260000
C      54.75850000    30.77350000    71.64610000
C      62.34910000    39.01450000    70.97960000
C      57.97190000    31.80230000    41.21040000
C      69.18710000    21.62600000    60.68370000
C      57.62200000    37.00840000    37.19910000
C      56.15420000    21.92060000    69.65290000
C      53.44790000    47.99110000    67.68320000
C      51.05830000    45.59490000    54.94250000
C      51.50800000    25.25450000    42.48210000
C      58.38970000    22.15450000    41.86950000
C      59.17720000    36.07510000    37.06680000
C      57.16780000    42.17130000    40.17720000
C      65.99330000    44.94870000    43.01530000
C      64.73820000    42.85050000    40.58050000
C      51.45860000    49.03160000    65.38530000
C      55.12240000    39.44970000    66.74170000
C      77.61710000    35.34380000    51.35950000
C      49.70580000    23.56170000    44.59730000
C      65.68500000    36.74210000    42.48810000
C      55.79830000    44.53240000    67.31710000
C      67.83960000    40.58350000    62.07480000
C      59.26710000    26.25930000    69.11980000
C      74.84620000    26.45020000    51.95630000
C      65.41570000    17.35780000    50.47270000
C      64.75150000    29.84790000    72.62910000
C      66.06170000    33.06660000    71.67790000
C      48.49290000    23.05020000    42.86380000
C      76.99600000    36.98720000    59.31820000
C      68.23130000    38.96190000    39.89370000
C      76.42900000    26.89280000    48.44970000
C      63.33860000    49.91880000    65.56470000
C      63.27870000    32.85280000    69.41150000
C      72.97580000    29.05810000    56.21640000
C      48.81900000    25.90240000    63.79950000
C      44.92480000    34.94400000    65.25580000
C      51.79250000    27.01130000    41.47840000
C      68.33260000    24.90370000    49.79930000
C      58.57360000    24.18320000    45.53650000
C      45.63250000    35.20040000    52.42050000
C      58.26880000    23.44790000    70.82620000
C      68.71980000    20.13980000    56.52040000
C      50.55180000    43.55630000    53.59030000
C      62.00070000    21.46820000    66.46940000
C      46.27030000    44.32600000    64.57780000
C      75.79300000    23.46710000    58.51590000
C      44.37420000    42.26460000    53.23550000
C      63.98920000    43.07590000    48.06890000
C      76.23820000    39.93010000    57.24010000
C      48.20650000    25.41450000    58.46510000
C      50.63700000    23.00440000    41.81480000
C      51.85340000    39.61320000    67.85740000
C      45.68940000    25.83250000    66.82250000
C      62.80970000    40.13690000    67.03360000
C      72.53790000    26.86980000    42.19440000
C      72.05390000    44.89420000    50.26330000
C      67.77260000    42.07970000    68.67700000
C      67.70050000    30.89430000    38.07300000
C      53.03940000    42.84530000    66.67020000
C      69.44850000    40.95650000    52.60710000
C      76.45990000    24.26400000    54.06010000
C      43.54860000    25.47050000    64.33210000
C      75.02110000    27.50880000    44.98380000
C      58.23920000    33.85780000    38.97940000
C      58.49130000    47.80340000    68.91080000
C      60.11370000    20.87000000    66.19250000
C      76.11310000    26.52090000    58.49250000
C      60.40710000    44.16670000    71.28690000
C      57.09790000    23.02770000    49.78060000
C      69.42360000    37.23250000    45.08810000
C      61.19130000    25.30300000    68.12060000
C      57.63440000    28.70760000    67.10780000
C      58.00510000    25.00360000    69.49550000
C      67.31790000    25.77660000    44.22680000
C      45.33730000    32.83000000    66.98010000
C      59.89590000    30.14360000    68.71470000
C      74.89970000    23.74950000    53.18070000
C      63.50600000    35.80560000    37.37380000
C      44.63780000    25.23640000    65.39090000
C      48.69910000    34.89580000    39.37810000
C      54.30510000    46.14920000    54.77790000
C      72.10220000    19.98610000    49.55250000
C      59.82730000    23.76500000    42.85310000
C      59.22520000    14.92800000    56.39650000
C      61.32760000    16.88120000    50.35310000
C      53.51490000    21.17730000    49.43840000
C      71.36930000    22.23240000    56.63730000
C      74.83770000    34.54210000    53.22140000
C      76.58880000    29.72440000    59.75880000
C      76.90820000    33.00300000    51.38190000
C      49.89470000    36.52900000    40.02030000
C      46.28100000    24.43900000    66.57410000
C      64.09760000    44.81970000    41.95050000
C      66.62290000    45.77900000    46.38800000
C      75.83070000    40.06710000    51.03540000
C      46.18510000    41.36660000    53.43690000
C      53.09170000    46.74050000    64.08600000
C      52.83640000    28.69910000    70.35840000
C      50.80280000    36.03550000    41.74680000
C      65.79270000    33.92020000    41.71850000
C      65.17130000    21.70880000    45.51350000
C      54.95840000    19.58470000    52.98930000
C      78.26540000    31.61930000    56.66880000
C      42.58620000    35.41350000    61.12240000
C      56.54200000    33.10660000    68.22770000
C      69.84790000    43.32060000    46.47240000
C      54.94310000    15.92390000    51.14980000
C      51.81870000    38.63160000    69.24950000
C      50.25770000    35.22530000    38.54930000
C      46.86100000    28.50310000    68.98080000
C      68.53450000    23.73500000    47.21060000
C      67.13250000    44.87040000    63.58120000
C      68.31170000    31.43660000    69.14370000
C      49.44440000    41.64130000    70.59760000
C      66.84850000    36.74180000    68.90210000
C      74.56520000    21.30650000    56.75540000
C      53.00770000    43.54040000    63.07480000
C      67.20360000    38.56980000    45.68310000
C      55.68290000    19.29130000    48.19520000
C      69.77540000    37.72340000    49.99270000
C      47.52620000    32.85510000    64.82180000
C      40.80610000    39.46840000    58.65280000
C      73.45520000    23.19150000    54.07700000
C      50.80750000    35.26810000    66.80540000
C      57.57440000    27.01800000    67.22700000
C      60.60500000    28.70250000    37.21530000
C      49.77890000    49.46160000    63.15000000
C      51.36870000    21.44760000    64.92330000
C      70.67680000    21.51440000    44.56500000
C      72.71110000    26.00070000    57.74120000
C      55.93970000    41.95510000    70.15200000
C      58.21270000    43.65190000    68.22710000
C      66.28110000    42.92650000    44.31270000
C      62.42150000    15.23480000    54.40950000
C      41.96120000    41.96240000    60.76880000
C      48.61810000    25.40880000    43.82240000
C      72.28880000    25.93840000    51.57720000
C      66.96570000    42.66590000    62.69670000
C      51.23110000    33.29290000    39.20780000
C      40.24220000    33.63770000    58.25990000
C      77.68000000    36.09710000    54.58830000
C      64.61440000    40.79840000    69.64590000
C      45.28940000    32.60330000    62.42960000
C      61.55380000    31.08300000    73.85910000
C      65.13170000    23.61570000    48.28750000
C      41.55850000    39.69660000    61.96420000
C      57.31210000    34.41950000    74.34890000
C      61.71140000    40.10350000    45.26570000
C      46.23240000    46.88810000    63.21260000
C      63.44240000    44.90420000    64.93990000
C      54.68550000    35.43950000    37.19600000
C      48.88630000    44.12900000    57.93370000
C      52.13640000    45.32870000    52.46130000
C      61.95520000    22.76430000    67.58100000
C      66.24430000    42.45910000    41.01080000
C      56.40600000    41.52840000    43.35870000
C      46.95930000    38.13390000    67.39960000
C      49.91200000    23.72350000    66.19400000
C      56.94800000    39.57720000    42.18580000
C      60.40090000    40.10430000    66.44590000
C      54.17360000    20.95300000    65.68110000
C      59.73510000    21.73160000    48.68750000
C      53.04990000    33.85410000    43.84500000
C      66.52410000    44.42600000    67.72020000
C      75.20990000    30.51930000    54.47770000
C      74.32900000    27.25040000    53.17860000
C      69.83540000    39.66120000    45.81210000
C      55.66540000    31.85510000    42.32200000
C      49.72980000    29.15600000    69.98210000
C      64.82920000    40.44900000    66.10100000
C      59.15020000    37.61320000    73.90230000
C      56.26940000    35.59590000    69.05340000
C      59.46450000    46.75550000    65.72180000
C      69.67360000    25.33940000    52.73160000
C      69.41230000    41.91900000    42.64490000
C      61.65530000    28.00640000    41.52510000
C      62.06980000    37.28880000    42.70260000
C      55.00540000    40.41190000    72.78020000
C      61.06250000    46.83730000    43.31770000
C      67.70150000    36.89750000    46.30160000
C      43.97020000    27.08160000    54.87950000
C      50.77340000    27.15870000    46.72640000
C      55.29200000    19.51060000    64.11710000
C      61.93200000    35.11690000    43.23270000
C      49.83900000    20.52260000    62.32770000
C      60.49280000    20.68090000    64.39030000
C      55.81160000    27.99200000    38.27680000
C      56.70410000    27.76440000    73.20650000
C      60.10780000    48.72580000    62.84640000
C      46.69170000    46.11050000    55.42150000
C      76.03980000    30.97280000    45.51870000
C      47.10510000    32.76390000    61.49110000
C      63.61810000    31.38310000    72.27170000
C      61.46700000    38.20050000    68.18470000
C      70.65660000    22.11000000    59.01360000
C      75.52910000    28.03540000    58.44950000
C      52.46080000    25.00910000    68.43790000
C      72.93330000    31.85130000    42.81880000
C      67.58150000    16.49940000    52.68970000
C      53.00520000    37.47070000    71.96780000
C      77.36850000    26.24880000    56.08690000
C      74.40740000    39.04690000    56.68510000
C      59.78270000    45.17330000    62.89420000
C      55.68800000    19.99680000    51.50350000
C      71.75910000    39.97260000    44.71840000
C      51.24820000    22.76210000    69.01690000
C      47.55660000    22.37250000    59.75910000
C      72.16080000    30.71970000    49.11390000
C      63.23170000    23.37920000    41.87400000
C      67.46950000    34.83980000    72.19340000
C      45.84530000    24.24720000    56.10750000
C      65.13210000    17.33340000    60.35700000
C      71.34610000    35.37650000    46.29030000
C      55.43460000    41.23810000    67.09160000
C      54.57350000    29.71450000    70.24070000
C      66.55780000    45.81470000    48.11610000
C      44.73100000    44.43850000    64.25310000
C      50.56520000    50.01910000    57.83730000
C      70.92990000    35.46530000    50.00660000
C      57.75930000    20.03000000    55.58670000
C      72.47740000    23.60710000    46.35340000
C      41.89000000    32.47960000    53.83570000
C      52.99360000    29.75940000    66.05130000
C      57.39670000    47.22110000    66.60800000
C      78.17810000    29.82820000    56.33550000
C      56.91690000    46.66360000    59.75880000
C      53.36350000    29.38140000    41.39350000
C      65.31440000    19.92120000    57.88180000
C      74.08500000    38.39980000    44.64030000
C      56.56340000    25.74990000    45.03750000
C      78.05090000    30.22760000    53.06510000
C      61.15200000    25.73760000    42.58200000
C      67.33500000    18.29780000    56.12570000
C      57.07820000    19.10660000    44.18970000
C      74.88840000    28.72190000    48.74880000
C      67.71950000    20.04880000    52.11860000
C      70.80620000    29.01260000    49.45010000
C      61.06940000    37.91670000    72.55350000
C      54.98320000    29.54860000    41.02050000
C      64.28010000    33.08150000    68.06290000
C      59.78380000    40.32750000    43.93850000
C      74.17980000    22.71440000    58.07760000
C      44.03350000    45.50370000    60.96840000
C      62.32670000    44.98800000    44.51470000
C      67.31310000    41.43880000    51.84410000
C      49.30280000    27.08090000    66.45840000
C      56.99180000    44.97390000    64.50660000
C      63.10220000    33.86500000    43.09980000
C      61.55440000    19.04990000    47.00360000
C      49.85590000    36.87440000    71.94450000
C      42.02850000    33.11590000    57.11430000
C      54.84410000    21.15200000    45.31970000
C      63.25690000    37.47440000    39.83600000
C      51.26300000    19.29060000    63.77360000
C      76.10180000    33.89970000    56.53830000
C      71.79010000    34.46470000    53.12740000
C      48.41650000    42.15660000    61.69350000
C      45.42430000    46.31690000    57.98580000
C      45.81760000    31.11310000    64.49030000
C      49.79200000    40.98370000    65.99200000
C      52.22830000    31.72040000    68.63790000
C      69.49770000    44.21530000    45.25610000
C      44.75480000    36.66560000    55.07870000
C      55.65680000    45.23340000    63.78400000
C      46.91320000    37.35300000    62.65630000
C      62.35450000    43.56830000    70.09580000
C      59.65090000    21.97530000    64.46260000
C      53.56400000    40.89110000    42.34420000
C      49.01750000    22.83550000    56.29980000
C      43.73740000    41.58000000    59.51580000
C      66.96520000    24.44620000    45.06990000
C      56.90560000    34.87920000    39.97470000
C      63.02490000    41.44440000    40.33990000
C      51.26460000    21.30690000    44.57100000
C      72.34460000    37.13440000    45.05740000
C      52.94430000    33.48640000    37.54140000
C      46.78180000    27.30060000    67.14510000
C      49.44060000    44.99550000    65.51690000
C      64.10360000    29.62840000    69.53130000
C      61.83620000    41.88650000    39.17770000
C      72.79270000    23.33130000    50.66800000
C      67.13600000    24.71860000    48.37920000
C      54.57980000    22.99550000    46.28640000
C      64.37650000    48.76370000    66.53980000
C      66.52770000    29.85550000    37.76620000
C      52.19520000    48.73030000    61.83600000
C      74.90420000    24.35120000    47.50930000
C      52.90070000    24.94190000    70.88710000
C      57.74490000    43.85060000    40.06380000
C      55.74970000    26.66180000    72.59840000
C      71.67230000    30.35990000    61.32880000
C      69.60320000    34.12050000    39.07590000
C      57.82880000    20.65090000    47.20960000
C      70.08700000    25.92310000    61.05110000
C      71.63730000    35.96580000    40.86090000
C      62.54390000    17.98730000    50.11770000
C      62.96720000    30.53520000    70.16430000
C      51.73210000    41.02390000    65.94480000
C      75.83010000    38.28700000    47.83040000
C      60.43980000    24.66630000    38.64530000
C      50.57650000    47.98230000    64.38430000
C      64.04750000    38.83090000    66.10920000
C      48.97720000    46.22230000    53.35850000
C      66.73120000    34.23000000    68.04650000
C      54.80150000    26.63650000    71.24050000
C      76.79980000    26.23730000    50.98610000
C      65.37530000    25.40410000    39.89110000
C      49.23020000    44.84390000    52.77920000
C      56.71710000    16.89190000    48.50550000
C      55.71760000    32.52630000    72.11260000
C      73.55380000    37.96890000    58.59060000
C      73.92080000    37.64260000    54.92820000
C      64.05340000    32.91590000    71.29520000
C      72.19110000    38.64460000    52.34740000
C      73.30930000    22.90730000    49.14360000
C      57.72510000    40.67260000    40.50380000
C      65.74770000    47.38100000    45.85510000
C      53.79740000    29.97710000    40.04600000
C      48.93920000    45.29070000    68.02330000
C      64.91200000    16.73300000    52.90010000
C      72.31100000    33.04950000    40.86340000
C      43.84320000    31.76040000    54.98000000
C      53.97750000    45.13790000    63.18860000
C      68.96430000    23.92330000    60.08440000
C      68.68270000    39.74000000    44.78170000
C      55.79760000    26.63430000    67.89840000
C      75.49560000    28.34970000    51.95280000
C      71.47160000    25.67150000    46.81510000
C      71.81900000    33.47660000    51.58170000
C      69.89180000    31.96960000    41.47690000
C      62.99800000    41.80520000    64.83930000
C      51.06570000    48.63570000    60.74430000
C      41.37300000    27.63210000    59.93760000
C      48.83690000    33.68140000    66.38810000
C      41.53800000    26.03320000    58.37160000
C      65.26080000    20.86660000    53.75580000
C      69.14290000    22.18110000    58.99680000
C      54.74640000    36.65310000    68.42490000
C      53.95310000    27.64910000    45.18330000
C      50.16020000    42.74260000    50.55310000
C      48.39100000    37.95790000    71.04710000
C      53.95380000    32.76390000    41.48910000
C      69.19040000    22.82840000    49.87250000
C      57.48600000    25.52920000    43.50310000
C      68.74300000    36.31520000    44.01880000
C      62.16300000    20.13800000    43.49340000
C      74.89330000    33.15830000    51.51770000
C      72.60550000    30.47950000    44.09350000
C      55.85670000    21.71470000    52.57520000
C      55.89400000    29.51390000    69.42290000
C      58.39880000    16.96050000    56.40540000
C      53.42510000    24.98640000    43.35130000
C      78.07310000    31.80050000    58.29330000
C      42.12470000    37.10340000    61.77980000
C      56.80240000    30.65760000    42.55430000
C      70.51050000    20.12520000    56.32740000
C      63.41350000    31.82190000    38.95770000
C      73.50540000    43.51170000    51.16370000
C      53.72710000    39.97030000    44.17710000
C      58.97610000    18.36080000    53.07340000
C      63.21900000    41.53990000    42.93560000
C      64.15440000    43.65370000    62.52640000
C      68.90770000    18.06720000    53.49960000
C      53.12240000    23.20660000    68.77130000
C      72.70940000    29.61310000    52.03570000
C      67.39420000    44.39040000    47.18540000
C      54.64520000    34.31980000    40.20520000
C      68.34800000    28.36270000    68.15500000
C      69.40300000    36.45910000    68.41010000
C      63.94390000    43.56060000    45.08970000
C      65.87150000    41.57260000    71.13910000
C      63.77280000    25.26210000    64.94410000
C      72.22710000    25.16000000    53.33540000
C      63.38590000    40.15700000    44.58170000
C      62.62680000    48.26860000    64.64880000
C      74.04000000    31.47900000    61.28250000
C      57.01370000    31.18100000    72.11480000
C      63.67080000    17.30970000    46.32460000
C      48.13620000    20.57190000    64.70560000
C      70.49030000    32.18500000    70.15830000
C      49.75710000    24.26910000    47.01580000
C      64.63860000    39.99330000    40.08920000
C      53.41050000    47.87940000    58.85520000
C      67.76230000    35.77070000    70.84810000
C      56.73390000    32.00950000    74.23200000
C      50.99940000    42.28930000    69.86430000
C      63.17510000    27.38730000    39.72000000
C      69.42840000    25.43060000    59.13590000
C      46.51540000    44.13160000    54.26120000
C      52.93260000    49.89540000    58.86520000
C      67.36710000    19.56220000    44.32140000
C      65.36480000    46.42600000    61.23890000
C      66.14520000    36.39530000    71.56330000
C      57.56570000    39.79780000    39.01080000
C      50.92020000    32.86590000    41.62580000
C      71.24450000    36.11550000    52.71910000
C      56.08140000    31.45570000    68.95120000
C      48.18220000    30.92710000    40.82540000
C      61.34740000    26.01110000    65.01060000
C      57.65320000    41.30640000    68.34440000
C      67.35040000    35.94290000    67.52790000
C      60.65910000    44.61280000    40.98290000
C      65.21190000    47.51060000    67.42280000
C      63.99510000    17.35990000    56.00140000
C      77.09260000    31.45790000    47.82060000
C      49.88140000    45.72810000    60.28160000
C      66.36950000    34.00290000    38.72660000
C      67.99040000    44.06540000    51.92580000
C      77.15600000    37.11940000    51.36860000
C      66.26380000    41.07030000    49.70970000
C      54.50670000    19.49480000    61.83020000
C      69.83100000    39.45780000    69.80530000
C      49.28860000    46.84870000    64.93480000
C      68.52770000    18.85150000    55.09770000
C      64.82740000    43.16080000    66.89160000
C      55.11050000    32.48940000    74.03630000
C      67.05350000    44.80920000    61.62510000
C      67.61380000    41.56390000    50.23290000
C      50.04760000    20.29350000    64.25920000
C      49.83530000    22.25890000    47.76030000
C      60.63340000    23.05860000    62.50850000
C      42.21900000    43.35120000    55.32990000
C      55.80980000    25.03040000    64.40840000
C      47.17520000    36.15170000    66.45710000
C      56.65910000    47.95680000    58.57080000
C      43.41790000    29.26790000    66.00690000
C      75.43380000    39.03160000    53.04970000
C      51.03540000    28.47700000    69.30380000
C      46.07910000    26.52820000    58.70200000
C      54.04550000    18.63690000    64.27770000
C      71.27520000    45.04710000    51.94350000
C      61.63090000    45.48820000    65.15880000
C      77.50840000    36.34580000    57.64180000
C      40.96960000    32.05110000    57.00350000
C      54.68340000    51.00970000    61.31030000
C      64.51300000    39.42870000    72.50800000
C      62.86650000    29.33650000    41.21570000
C      77.11800000    27.49320000    60.02390000
C      69.00580000    18.13680000    61.60130000
C      49.73370000    22.38010000    60.60490000
C      72.65460000    35.49520000    48.69340000
C      44.11530000    36.28730000    58.67640000
C      43.95110000    36.19860000    67.33680000
C      72.77320000    37.64620000    53.78200000
C      59.50000000    35.85670000    71.16820000
C      72.23060000    27.43980000    53.22250000
C      44.88230000    23.37570000    59.64100000
C      54.92010000    22.94820000    43.46120000
C      70.91950000    28.67950000    59.79340000
C      58.28690000    32.69830000    38.02610000
C      56.17280000    23.23400000    68.13440000
C      42.38340000    33.86110000    61.32590000
C      75.69760000    34.97370000    51.87610000
C      45.02510000    41.86760000    62.92400000
C      69.72220000    22.94330000    47.70650000
C      62.98990000    20.19230000    47.13120000
C      51.29580000    36.38040000    38.22060000
C      72.69040000    28.86840000    57.93470000
C      63.12700000    49.13990000    62.93280000
C      73.27540000    23.64910000    59.27310000
C      46.20660000    38.48730000    60.56620000
C      40.86870000    32.27310000    62.95570000
C      73.69590000    27.97560000    54.56650000
C      44.45020000    32.59470000    64.56050000
C      76.13270000    25.94450000    56.89090000
C      59.06930000    20.94020000    68.99500000
C      68.93440000    25.31710000    47.70320000
C      51.73510000    22.64370000    61.24310000
C      43.11050000    44.94340000    55.71290000
C      71.85490000    27.72720000    47.77060000
C      64.68740000    26.98690000    66.90580000
C      42.32560000    41.03100000    55.17950000
C      48.00870000    26.99710000    65.25140000
C      74.18690000    24.30050000    46.14020000
C      58.46090000    33.18350000    72.38410000
C      62.38740000    32.45970000    37.86130000
C      44.39430000    43.19640000    58.39340000
C      64.02660000    43.40730000    64.45870000
C      67.62250000    40.43730000    68.34480000
C      57.53280000    38.35270000    73.70740000
C      71.36990000    24.95500000    62.27620000
C      73.52280000    36.06250000    55.73960000
C      62.19550000    25.60050000    69.27890000
C      74.70700000    27.65740000    60.78170000
C      57.15370000    37.22370000    71.91350000
C      56.91010000    35.01210000    72.26770000
C      63.49830000    19.30450000    55.83720000
C      48.08490000    47.23560000    54.88840000
C      43.10800000    27.26550000    61.01380000
C      40.39860000    32.39180000    59.17930000
C      56.88870000    19.23990000    46.02940000
C      43.89500000    25.21600000    56.19040000
C      48.16690000    39.87270000    63.43370000
C      60.72740000    33.88220000    74.21570000
C      48.59800000    26.41480000    60.49580000
C      59.64880000    40.22020000    39.28670000
C      61.23910000    43.75730000    67.92410000
C      65.51640000    20.49630000    42.29420000
C      58.60950000    28.94640000    73.69220000
C      58.14170000    48.31690000    56.66290000
C      48.43850000    21.77340000    66.37860000
C      59.38190000    19.04950000    50.59310000
C      55.61290000    48.16120000    65.05860000
C      43.27070000    26.77770000    57.61070000
C      63.04780000    21.78040000    64.96100000
C      54.29990000    48.43310000    57.77580000
C      60.80070000    16.43380000    48.18650000
C      46.79620000    28.35920000    66.08030000
C      59.62150000    25.89480000    43.84500000
C      55.30000000    38.37180000    69.17490000
C      40.86230000    33.03810000    55.38670000
C      68.56850000    38.62890000    69.73760000
C      68.49890000    20.94060000    50.24300000
C      49.65100000    32.26670000    38.94410000
C      65.75180000    16.10400000    51.82460000
C      48.38100000    36.23120000    71.19410000
C      49.96640000    31.26070000    68.22950000
C      57.53820000    26.38660000    40.62290000
C      57.06110000    46.50260000    62.56280000
C      60.77170000    45.23310000    44.48540000
C      68.75490000    36.07390000    66.35810000
C      61.66910000    38.93180000    41.06580000
C      75.69230000    25.85790000    47.55970000
C      63.53530000    29.20760000    37.21310000
C      74.69970000    23.12290000    56.19370000
C      49.88270000    43.96250000    61.30360000
C      73.75350000    42.32530000    48.87120000
C      54.77600000    18.08330000    48.55840000
C      49.42930000    21.60300000    45.25280000
C      67.98270000    45.02820000    48.75350000
C      62.10160000    21.58730000    52.58340000
C      65.39110000    33.01540000    69.77590000
C      76.18540000    33.43410000    54.88540000
C      62.76370000    18.74450000    43.71790000
C      76.70720000    25.10850000    58.13810000
C      59.44650000    28.12550000    42.74840000
C      51.39120000    26.78950000    63.77000000
C      67.41800000    19.17580000    47.09970000
C      54.36820000    36.39090000    41.48400000
C      40.63950000    29.77350000    59.31650000
C      61.39680000    21.51470000    42.01060000
C      56.52080000    26.85510000    41.95170000
C      41.67580000    42.37990000    56.48880000
C      74.79880000    29.29850000    61.52880000
C      54.12030000    19.67110000    67.29160000
C      54.19760000    28.43520000    71.88290000
C      46.34790000    39.80530000    64.56220000
C      57.77570000    46.54450000    69.89060000
C      63.71040000    18.83510000    47.87850000
C      59.85580000    50.52030000    65.74660000
C      65.53380000    32.03570000    66.20600000
C      62.37640000    27.91070000    70.55170000
C      60.98190000    18.76330000    51.23390000
C      62.75280000    32.74730000    41.91630000
C      64.03870000    37.06100000    73.21910000
C      60.79490000    27.08520000    39.75060000
C      71.59450000    27.55480000    41.06070000
C      62.52190000    37.44670000    72.41840000
C      59.41630000    27.52480000    67.53430000
C      44.74100000    41.83310000    56.26460000
C      76.52760000    25.10820000    52.07230000
C      76.48440000    27.36340000    53.10540000
C      64.62690000    22.98840000    65.53440000
C      59.22730000    38.56860000    42.94020000
C      58.58000000    30.84990000    40.22170000
C      73.36880000    35.23780000    43.80570000
C      44.57600000    40.76250000    66.92690000
C      58.11350000    47.94150000    62.27920000
C      51.96840000    32.85360000    43.34970000
C      44.61800000    28.64410000    64.07230000
C      54.55160000    43.60100000    67.84540000
C      62.28820000    25.66910000    66.93750000
C      47.54270000    49.16710000    60.02520000
C      64.90220000    36.32680000    69.89640000
C      46.95190000    39.19870000    69.81200000
C      65.44220000    37.20580000    39.22440000
C      44.10610000    21.65320000    60.72840000
C      57.12310000    47.17020000    57.37530000
C      66.98430000    34.03900000    43.38740000
C      68.10320000    36.04990000    64.12390000
C      55.21220000    47.82030000    68.36260000
C      41.76580000    39.53050000    56.70090000
C      47.36890000    35.29560000    67.99980000
C      64.44170000    17.58610000    57.65800000
C      72.98470000    20.33830000    51.25900000
C      70.44450000    44.66410000    49.64480000
C      68.66440000    34.48760000    44.62060000
C      70.36290000    43.02550000    52.18970000
C      44.87320000    27.37640000    59.81520000
C      72.54670000    41.08570000    50.20880000
C      48.31290000    21.24410000    58.09130000
C      68.53540000    25.42360000    60.61080000
C      53.19300000    22.41000000    44.23290000
C      70.28900000    19.72190000    60.54310000
C      74.28090000    22.11360000    60.52230000
C      76.69740000    37.33530000    49.37630000
C      44.95180000    24.96560000    61.99890000
C      72.39180000    35.99320000    54.21710000
C      48.35300000    31.13490000    68.14620000
C      41.82460000    37.05910000    56.95790000
C      53.93870000    31.90150000    68.37940000
C      52.50340000    38.72630000    72.68710000
C      46.84510000    41.22840000    55.05150000
C      59.50400000    30.49400000    74.03600000
C      42.52780000    30.38720000    58.89420000
C      68.98550000    34.19330000    46.22070000
C      68.35720000    22.35390000    54.10330000
C      54.14330000    22.88080000    63.17740000
C      66.71600000    34.74120000    65.62040000
C      47.25570000    26.36970000    68.57420000
C      63.02400000    26.96280000    67.44140000
C      61.66710000    26.32490000    41.13240000
C      47.58000000    48.50540000    62.20100000
C      67.85620000    45.44850000    67.45030000
C      47.86850000    28.65300000    62.94560000
C      68.09670000    31.39490000    71.60310000
C      65.25430000    43.65130000    70.17690000
C      77.39720000    34.61280000    49.45700000
C      59.39320000    44.50000000    43.38840000
C      60.95150000    22.95940000    65.32210000
C      76.23950000    31.51220000    56.89230000
C      53.90400000    25.46170000    67.96810000
C      52.87810000    30.69760000    39.02070000
C      67.60260000    29.77020000    43.84080000
C      71.74120000    21.51810000    48.38460000
C      61.09340000    18.36840000    53.42220000
C      67.87850000    40.33340000    48.28320000
C      68.13750000    44.91680000    44.64490000
C      74.76690000    34.38380000    47.81320000
C      63.48960000    29.89320000    67.61180000
C      77.90080000    33.90450000    58.44500000
C      62.26260000    20.19360000    55.60390000
C      59.65110000    35.95100000    74.18540000
C      66.59190000    23.91520000    39.92610000
C      48.69410000    42.40960000    67.07910000
C      53.40960000    24.06140000    62.60270000
C      60.65290000    46.68900000    69.69570000
C      57.01560000    36.11140000    41.10140000
C      56.99750000    22.80240000    66.52950000
C      77.60820000    27.12140000    54.30840000
C      57.58780000    42.96970000    71.98230000
C      62.76180000    44.36340000    41.12270000
C      65.97810000    42.40380000    65.44530000
C      58.21440000    30.07050000    70.89630000
C      51.43470000    45.55300000    60.06150000
C      44.77440000    31.17840000    61.61880000
C      67.78880000    41.95530000    60.12940000
C      69.61260000    28.53040000    45.95490000
C      75.27500000    30.49480000    44.31670000
C      61.16790000    18.22480000    58.51880000
C      61.31120000    33.37840000    68.99090000
C      56.40230000    17.30620000    50.02900000
C      71.44670000    28.62160000    52.67400000
C      56.46840000    38.66490000    70.31520000
C      69.89040000    33.88340000    66.78970000
C      60.15250000    29.85490000    41.11630000
C      46.68780000    20.45080000    59.92330000
C      42.26780000    34.60550000    64.78110000
C      46.32630000    42.45780000    66.31810000
C      67.14630000    38.86970000    71.67550000
C      74.49610000    30.58020000    46.97850000
C      73.66670000    34.64880000    58.22870000
C      49.57120000    30.82150000    70.37400000
C      63.46070000    47.31020000    44.60990000
C      64.72410000    28.09390000    65.05520000
C      71.16020000    19.60620000    48.44650000
C      43.38200000    26.15320000    62.75920000
C      56.35720000    43.84670000    71.45530000
C      58.61080000    20.04790000    65.25210000
C      41.78490000    28.31800000    61.45070000
C      53.86710000    43.56100000    71.31200000
C      44.09560000    34.35640000    56.13370000
C      52.66970000    45.01030000    64.45240000
C      59.55150000    49.89180000    59.94060000
C      44.87580000    44.42950000    61.91550000
C      68.89580000    39.74380000    66.40960000
C      43.42560000    28.73260000    56.47450000
C      68.18290000    22.89920000    46.01440000
C      70.03360000    22.45790000    57.34290000
C      47.57940000    41.31220000    63.42210000
C      53.99410000    41.60600000    66.57190000
C      64.84790000    35.62540000    72.12650000
C      48.82350000    27.75400000    42.44830000
C      72.71640000    37.01940000    50.58090000
C      66.76520000    27.08830000    66.10980000
C      41.79000000    29.37900000    63.99090000
C      55.12460000    22.33960000    51.40760000
C      74.64100000    35.56090000    57.22930000
C      58.55320000    26.84300000    42.39490000
C      70.70380000    35.96000000    70.02360000
C      63.51200000    30.09960000    39.10930000
C      45.46980000    25.89880000    63.49390000
C      69.70950000    34.52460000    42.85580000
C      67.65010000    43.82290000    68.94710000
C      47.94660000    45.04980000    63.86810000
C      67.24150000    22.08750000    48.47100000
C      51.43410000    36.82120000    71.52520000
C      53.02360000    45.10840000    53.68150000
C      53.35630000    17.50020000    50.64370000
C      55.63160000    24.15950000    40.10490000
C      76.07650000    29.24760000    56.26240000
C      58.24830000    39.99110000    73.14990000
C      55.01100000    47.67430000    55.96630000
C      56.37030000    28.05720000    68.87920000
C      58.22550000    38.77920000    44.07810000
C      44.96420000    38.48400000    51.60970000
C      54.71080000    24.96450000    65.43210000
C      76.97560000    28.48170000    48.71490000
C      54.77370000    21.47130000    69.14590000
C      68.97150000    40.38030000    42.52880000
C      72.58690000    38.07270000    55.66710000
C      42.02010000    24.08990000    60.31340000
