39
explore s3: 24 substrate + 2 neutralisers + 13 catalytic
C     60.11193800    34.38396900    57.21013200
H     60.60719900    33.42993900    57.38460900
H     60.72469300    35.27181800    57.05919300
C     58.78057700    34.50353200    57.15195800
C     58.09218200    35.83426100    56.89335400
O     58.81246700    36.81821800    56.57878900
O     56.83954900    35.84891700    57.00961700
O     57.93461500    33.42640300    57.34599800
C     57.67693600    32.53773200    56.20080600
H     57.01901700    31.76376900    56.62407200
C     58.98648700    31.96184000    55.79317200
H     59.46393000    31.24298300    56.46049600
C     59.68310500    32.48267100    54.76815100
C     59.06432100    33.48370900    53.89317900
H     59.70236100    33.90454400    53.11096900
C     57.78125300    33.86565900    54.03153300
H     57.33218100    34.60235400    53.35662900
C     56.88979900    33.27109300    55.08618200
H     56.34719000    34.09064800    55.58588000
O     55.96286300    32.39770700    54.43466800
H     55.31084500    32.10952700    55.09277000
C     61.12320000    32.06212600    54.53420800
O     61.78496200    31.70232800    55.54338100
O     61.54107100    32.10651300    53.35273800
C      56.89929012    38.07196516    56.44899647
C      63.56063336    31.35003838    54.14522169
C      53.36920000    30.60690000    52.48330000
C      63.03720000    29.32590000    51.80970000
C      58.13400000    29.81270000    59.11180000
C      60.66610000    28.40310000    54.27480000
C      57.34440000    31.10210000    60.06490000
C      61.23120000    34.32370000    50.33980000
C      59.02920000    31.08470000    60.10650000
C      56.38410000    38.90940000    58.67480000
C      54.92550000    28.93900000    54.86420000
C      60.25040000    28.98070000    52.39940000
C      63.11600000    28.97000000    53.72900000
C      63.05290000    35.16570000    52.19360000
C      64.09530000    29.06670000    55.28390000
