1012
explore m3_ge7: 24 substrate + 988 active C quasi-atoms
C     60.11193800    34.38396900    57.21013200
H     60.60719900    33.42993900    57.38460900
H     60.72469300    35.27181800    57.05919300
C     58.78057700    34.50353200    57.15195800
C     58.09218200    35.83426100    56.89335400
O     58.81246700    36.81821800    56.57878900
O     56.83954900    35.84891700    57.00961700
O     57.93461500    33.42640300    57.34599800
C     57.67693600    32.53773200    56.20080600
H     57.01901700    31.76376900    56.62407200
C     58.98648700    31.96184000    55.79317200
H     59.46393000    31.24298300    56.46049600
C     59.68310500    32.48267100    54.76815100
C     59.06432100    33.48370900    53.89317900
H     59.70236100    33.90454400    53.11096900
C     57.78125300    33.86565900    54.03153300
H     57.33218100    34.60235400    53.35662900
C     56.88979900    33.27109300    55.08618200
H     56.34719000    34.09064800    55.58588000
O     55.96286300    32.39770700    54.43466800
H     55.31084500    32.10952700    55.09277000
C     61.12320000    32.06212600    54.53420800
O     61.78496200    31.70232800    55.54338100
O     61.54107100    32.10651300    53.35273800
C      50.27310000    40.94170000    55.13910000
C      62.49090000    23.65170000    52.77400000
C      59.35530000    32.90650000    44.98100000
C      69.66580000    33.73210000    51.37810000
C      62.33450000    28.81390000    65.15030000
C      57.02840000    42.75980000    63.79670000
C      68.23430000    34.51490000    47.02810000
C      57.00330000    28.04070000    47.19090000
C      54.84800000    32.02210000    65.47600000
C      70.01020000    31.62910000    52.57790000
C      58.27460000    37.14420000    45.56170000
C      51.72540000    28.42560000    62.16760000
C      56.94910000    35.15280000    66.15750000
C      69.29870000    27.84000000    56.63380000
C      60.83390000    26.30130000    47.15980000
C      67.31270000    34.90070000    63.68580000
C      46.98750000    29.74610000    58.81550000
C      56.92160000    35.19300000    44.01010000
C      65.97760000    37.72140000    62.85590000
C      65.23820000    38.17790000    64.53130000
C      66.47350000    38.22020000    47.96520000
C      56.40620000    25.89280000    47.50200000
C      54.47840000    35.64070000    65.23610000
C      52.48810000    40.19280000    62.90330000
C      68.05070000    26.71200000    48.98210000
C      46.57990000    34.91300000    57.48490000
C      47.47680000    36.18610000    58.76020000
C      65.64180000    30.23460000    63.06050000
C      55.10490000    38.54280000    65.97220000
C      60.71960000    25.90070000    62.57020000
C      61.16620000    36.36180000    45.42910000
C      46.66400000    35.90280000    56.03340000
C      50.64030000    40.97810000    62.09500000
C      56.88680000    28.41780000    64.40380000
C      58.49330000    24.10620000    62.27980000
C      54.85260000    26.71480000    64.19650000
C      62.40220000    26.14410000    63.52830000
C      64.16170000    24.18130000    48.78060000
C      53.99400000    26.95000000    62.76830000
C      47.64620000    31.94360000    58.63750000
C      49.58350000    29.53380000    62.01790000
C      69.24150000    35.68450000    52.68160000
C      69.76740000    29.22910000    53.89680000
C      58.48160000    35.86600000    44.17800000
C      52.24300000    31.01070000    64.71710000
C      54.42260000    30.16490000    45.20230000
C      71.09400000    32.45510000    53.70250000
C      62.30020000    37.75960000    64.92220000
C      49.86400000    27.73430000    59.63270000
C      60.59060000    33.77410000    67.11520000
C      49.90090000    38.98350000    62.72280000
C      46.18940000    31.70530000    57.56290000
C      59.30800000    41.48760000    64.85760000
C      57.24580000    23.51700000    61.27540000
C      64.45940000    23.68970000    56.63580000
C      47.43960000    31.28970000    60.20740000
C      61.78630000    28.25820000    44.65150000
C      54.74150000    40.28760000    65.16420000
C      58.18370000    25.92930000    62.63080000
C      65.70820000    40.39450000    61.07330000
C      62.48630000    40.41320000    64.59050000
C      47.90410000    37.52980000    59.82280000
C      58.05930000    32.81320000    67.34890000
C      62.76000000    31.43840000    66.10350000
C      48.36070000    39.64070000    59.09040000
C      51.92300000    34.47620000    65.04270000
C      71.27250000    32.27230000    56.05930000
C      62.69290000    36.96850000    46.12110000
C      50.33040000    27.49680000    61.61200000
C      58.08210000    36.61670000    66.93370000
C      56.11480000    23.85110000    50.25000000
C      62.03770000    34.25860000    65.69080000
C      67.43750000    24.04820000    55.75330000
C      51.63560000    42.13860000    59.43970000
C      66.67440000    34.02540000    46.83170000
C      63.78540000    27.43750000    46.59190000
C      46.89140000    32.81860000    55.77840000
C      53.36010000    38.47400000    64.32620000
C      58.20030000    25.35610000    49.37660000
C      59.38870000    36.94460000    65.67670000
C      69.79560000    34.58040000    55.99820000
C      61.53700000    22.20640000    54.93560000
C      59.40360000    22.25630000    53.97220000
C      60.38900000    24.27180000    48.07130000
C      53.14560000    28.39370000    63.20810000
C      55.39530000    24.65890000    62.53510000
C      59.68490000    32.49460000    67.21500000
C      59.60620000    35.03980000    67.20990000
C      49.22460000    30.62780000    60.66920000
C      48.50720000    36.86980000    61.49750000
C      56.80700000    30.28680000    66.63260000
C      49.97940000    32.37940000    61.55770000
C      63.92220000    29.71170000    45.53360000
C      66.28630000    26.54160000    48.98770000
C      70.86420000    28.85520000    55.79150000
C      48.31830000    33.07830000    61.32540000
C      68.27930000    35.91270000    47.81120000
C      66.36210000    33.43780000    45.25500000
C      49.43460000    25.76850000    58.54660000
C      60.58490000    33.83430000    44.96040000
C      58.45870000    27.26490000    63.57860000
C      59.89870000    29.11200000    64.87160000
C      62.00500000    41.99790000    62.53870000
C      68.78550000    32.68210000    47.20600000
C      65.35640000    24.09720000    54.14820000
C      47.84300000    34.82800000    60.20160000
C      60.36210000    26.59360000    45.68370000
C      63.32850000    23.14180000    50.69910000
C      54.10280000    28.50330000    46.99890000
C      70.06330000    28.29850000    51.49350000
C      65.48630000    34.40240000    65.28340000
C      67.05840000    35.88860000    46.58090000
C      54.49150000    24.65860000    60.51850000
C      64.32060000    32.50440000    45.31030000
C      50.27170000    34.18560000    62.17200000
C      48.74660000    37.52230000    53.85060000
C      56.31810000    33.53340000    45.03440000
C      68.03190000    29.97560000    46.72570000
C      69.91640000    27.51050000    52.91550000
C      65.60110000    23.63840000    51.80270000
C      58.16940000    38.30890000    65.23190000
C      59.77190000    31.20230000    44.04410000
C      61.24080000    41.78100000    64.32810000
C      61.71570000    27.47330000    64.54290000
C      65.69550000    26.97790000    46.49460000
C      65.12670000    28.83980000    45.16420000
C      48.57230000    34.60580000    61.55890000
C      64.00580000    40.88180000    63.56830000
C      48.48790000    28.40220000    58.24800000
C      69.18980000    27.16940000    50.57590000
C      53.55560000    29.31710000    64.92400000
C      57.06550000    30.32000000    44.83840000
C      56.37010000    26.32380000    64.20040000
C      59.85790000    30.24640000    66.60870000
C      63.81800000    24.51370000    50.23580000
C      59.06520000    23.59060000    49.89790000
C      64.77330000    22.66570000    55.56390000
C      56.36630000    41.04120000    64.97290000
C      58.16960000    31.32900000    67.09130000
C      64.07790000    35.53910000    65.98480000
C      54.83820000    30.21650000    64.83070000
C      50.65320000    32.06490000    63.41810000
C      64.23330000    29.91580000    65.07340000
C      61.33990000    37.78000000    44.93050000
C      63.87130000    26.91010000    63.55710000
C      67.88730000    37.71490000    52.07990000
C      63.78520000    34.27330000    65.09350000
C      59.59120000    25.58470000    46.70120000
C      65.33420000    36.03940000    65.21180000
C      52.96920000    43.69390000    60.76080000
C      69.66820000    33.69510000    48.66040000
C      51.75010000    24.56530000    59.92780000
C      51.87920000    30.25130000    62.98960000
C      55.12920000    41.82320000    64.21920000
C      59.13300000    29.16930000    44.62590000
C      68.39410000    26.33740000    55.86340000
C      62.24210000    30.27240000    44.03830000
C      69.17870000    25.94660000    57.21560000
C      58.23180000    28.18390000    65.62990000
C      58.75280000    42.85110000    63.94100000
C      60.87600000    30.93980000    65.51130000
C      62.32800000    38.73620000    45.73890000
C      60.71190000    22.72330000    51.94560000
C      66.38980000    36.54630000    47.93610000
C      69.02660000    28.89420000    48.43080000
C      52.46340000    25.59640000    62.04630000
C      58.83020000    22.78250000    52.41830000
C      68.34130000    26.71090000    53.38630000
C      55.25780000    33.21110000    66.87890000
C      62.79780000    25.06680000    48.72500000
C      48.43210000    28.41190000    60.26800000
C      62.66660000    28.46320000    63.57290000
C      65.40910000    31.86950000    65.07230000
C      70.85490000    32.25780000    51.39730000
C      57.68260000    39.88160000    65.69760000
C      62.37510000    32.70590000    43.89040000
C      51.14290000    37.15630000    63.20720000
C      50.74800000    30.80130000    62.01780000
C      63.22250000    35.37700000    44.57370000
C      61.87620000    24.51290000    47.62320000
C      64.78380000    38.62810000    48.72200000
C      66.90030000    26.16070000    50.44310000
C      55.40130000    32.29020000    44.34760000
C      71.11250000    33.57530000    55.22370000
C      64.36110000    36.43400000    46.57940000
C      65.79110000    32.06360000    44.83580000
C      68.90030000    27.99950000    58.40750000
C      56.89830000    31.99840000    44.24010000
C      60.92530000    38.53970000    64.80760000
C      64.13710000    30.61720000    44.31780000
C      54.84320000    43.15040000    62.78000000
C      70.29780000    31.21550000    49.73110000
C      54.99140000    27.04940000    47.86280000
C      51.09250000    25.80800000    60.84370000
C      59.85530000    43.92280000    62.82550000
C      48.54240000    37.31550000    58.25930000
C      53.04800000    40.31250000    64.51240000
C      55.75480000    28.61400000    65.50240000
C      63.02290000    36.44180000    65.14370000
C      57.81970000    33.05940000    45.06790000
C      68.33820000    27.16940000    51.94470000
C      51.92650000    41.39880000    61.20740000
C      63.51040000    38.63290000    47.60190000
C      69.40280000    36.71950000    50.61370000
C      47.92020000    39.09330000    57.71740000
C      61.34430000    31.90550000    66.71570000
C      60.33880000    27.54810000    63.72620000
C      68.35000000    24.86440000    54.68630000
C      69.96690000    29.68280000    56.78260000
C      61.92210000    25.99330000    46.06640000
C      58.62430000    28.75130000    46.08570000
C      60.05450000    34.88180000    43.97200000
C      65.62340000    37.31500000    46.51180000
C      49.44120000    40.39980000    60.90380000
C      70.16650000    35.39620000    51.03260000
C      66.76110000    32.82390000    62.76690000
C      46.90200000    34.12670000    58.93940000
C      64.26670000    33.70530000    44.37460000
C      70.71850000    34.60880000    53.03240000
C      55.79700000    23.73560000    59.43230000
C      67.77600000    27.65170000    47.70740000
C      56.83990000    34.12400000    67.27180000
C      50.40080000    33.62730000    63.65740000
C      61.22010000    23.18460000    50.05310000
C      60.16970000    24.64340000    61.35250000
C      51.77270000    36.83420000    65.00760000
C      64.66850000    39.60060000    64.15220000
C      52.76110000    35.71270000    65.60790000
C      50.10870000    36.54490000    62.18350000
C      71.21190000    30.76930000    54.60690000
C      53.47810000    32.86700000    66.03510000
C      61.96990000    36.16430000    66.56120000
C      62.62330000    23.26710000    54.70960000
C      67.97500000    25.12460000    52.53800000
C      65.25280000    28.62490000    63.91000000
C      65.84890000    24.39480000    49.80490000
C      65.78510000    30.63170000    46.11670000
C      63.70670000    25.14100000    47.23730000
C      58.33020000    34.27870000    66.37440000
C      55.62620000    35.04060000    66.91100000
C      70.64070000    29.89640000    51.64230000
C      47.20580000    33.21840000    57.30120000
C      65.31310000    39.25160000    62.56430000
C      64.70110000    25.63460000    48.80620000
C      59.77300000    36.82360000    44.38750000
C      55.58820000    23.61120000    61.24820000
C      70.27730000    35.88980000    54.55320000
C      53.39050000    42.24320000    63.15820000
C      60.18290000    27.89520000    44.92570000
C      63.79340000    32.57340000    64.89100000
C      66.77620000    28.49640000    46.27060000
C      59.47810000    39.24300000    65.86710000
C      66.11870000    35.99070000    63.29340000
C      50.27310000    40.86890000    59.06760000
C      55.04250000    44.14690000    61.34720000
C      67.73720000    38.26130000    49.52250000
C      58.09250000    31.54520000    45.42710000
C      62.84880000    28.38500000    45.80230000
C      50.99980000    35.60150000    64.52240000
C      55.33020000    28.42900000    45.75950000
C      53.77540000    37.09120000    65.93550000
C      56.48970000    37.20280000    66.53760000
C      64.75920000    22.91210000    53.42550000
C      58.48830000    27.19140000    45.79560000
C      51.61940000    28.82730000    63.65800000
C      55.89770000    27.04400000    46.56460000
C      54.94020000    30.73300000    66.26770000
C      47.66410000    38.04410000    55.74440000
C      60.75020000    23.41890000    53.62770000
C      69.56280000    31.72680000    48.24270000
C      70.34320000    27.57580000    54.96740000
C      67.05050000    31.35080000    45.62740000
C      57.72340000    24.74420000    50.81380000
C      61.04430000    40.13650000    65.21750000
C      57.94510000    26.20590000    46.80700000
C      65.53510000    33.61070000    63.96720000
C      62.72920000    34.05890000    45.14730000
C      59.43460000    25.14060000    63.38630000
C      55.60920000    31.43000000    45.61930000
C      69.55190000    26.26650000    54.69770000
C      63.41360000    33.13000000    66.24280000
C      70.43160000    32.99880000    50.07220000
C      65.31310000    35.03600000    45.11920000
C      57.31700000    41.19810000    63.73370000
C      49.18750000    31.06690000    62.11580000
C      56.90050000    24.63380000    49.01000000
C      51.64390000    26.94780000    62.60710000
C      48.81450000    38.91720000    61.10640000
C      61.96250000    23.88450000    51.16660000
C      53.95350000    25.29890000    62.69950000
C      57.15900000    28.59560000    45.66740000
C      66.55370000    24.88870000    53.70160000
C      67.61200000    32.70360000    46.04620000
C      69.33620000    35.42880000    49.01910000
C      55.27220000    25.18090000    48.26740000
C      63.88250000    38.38220000    65.20030000
C      62.75120000    31.52360000    44.94160000
C      71.13830000    30.70190000    56.99910000
C      51.49610000    39.35120000    64.06380000
C      63.80020000    37.98520000    45.95810000
C      69.81140000    34.32640000    54.43150000
C      50.47330000    41.82110000    60.80240000
C      60.55160000    42.51930000    62.66430000
C      66.38480000    24.64920000    56.82510000
C      48.29070000    32.95960000    59.70190000
C      60.59590000    29.69460000    44.19410000
C      60.61260000    25.65090000    45.10160000
C      56.12110000    39.97260000    67.73990000
C      57.52940000    37.12480000    68.84650000
C      59.74510000    37.31100000    71.86450000
C      49.94500000    31.92430000    65.63400000
C      73.37420000    28.16620000    52.25900000
C      64.95660000    35.15780000    42.78390000
C      62.10290000    26.24880000    44.63510000
C      56.12770000    40.07320000    69.83160000
C      57.42250000    31.65860000    70.19490000
C      70.39350000    21.46930000    53.56140000
C      73.30600000    34.04910000    49.53990000
C      62.92080000    31.34740000    40.93370000
C      46.65850000    29.98080000    66.36260000
C      49.64350000    32.12310000    69.41820000
C      63.21320000    34.25980000    41.13480000
C      62.05670000    28.53230000    43.47420000
C      49.99650000    35.72650000    70.93750000
C      57.92160000    35.95040000    73.22590000
C      69.47460000    27.48360000    40.84150000
C      48.85030000    31.73360000    63.20230000
C      65.98990000    23.57810000    43.85400000
C      63.14900000    33.94690000    67.45940000
C      47.57820000    36.20520000    63.84980000
C      63.66780000    35.42380000    70.39830000
C      74.18050000    25.42170000    50.83060000
C      55.73300000    32.77150000    70.09050000
C      60.91950000    27.25240000    42.92520000
C      61.88340000    30.28900000    39.96090000
C      46.17490000    32.79460000    60.11300000
C      70.04040000    33.60000000    41.67630000
C      63.63570000    28.44100000    42.63540000
C      50.15540000    26.79650000    62.60860000
C      62.77870000    26.54730000    42.20480000
C      60.17570000    22.49200000    45.45290000
C      64.61020000    24.44000000    41.41060000
C      59.90230000    29.47880000    70.61760000
C      55.42330000    36.89370000    70.69120000
C      60.07690000    32.04100000    73.20380000
C      51.27280000    38.21220000    66.81190000
C      71.25900000    35.26420000    44.50140000
C      56.78390000    26.70480000    70.50530000
C      46.63840000    29.51940000    62.01110000
C      49.72530000    35.64130000    68.50310000
C      54.62670000    23.85060000    67.11980000
C      56.73570000    30.19240000    67.66550000
C      57.33930000    27.81590000    43.52300000
C      51.95560000    29.35290000    67.74710000
C      46.97400000    36.87420000    60.51060000
C      69.14150000    24.93660000    44.77450000
C      51.36350000    26.05900000    67.28970000
C      70.53760000    33.32750000    46.26460000
C      53.06810000    31.04170000    70.04960000
C      64.76970000    37.25180000    68.66980000
C      57.18970000    29.08210000    71.59410000
C      51.25400000    23.94110000    60.58820000
C      61.94940000    40.92740000    69.10400000
C      68.77190000    32.89690000    44.42070000
C      69.34360000    25.65910000    42.94390000
C      72.59920000    33.08890000    43.99730000
C      69.38740000    35.83100000    45.78800000
C      47.16960000    32.84000000    67.41250000
C      61.25770000    20.00680000    50.15300000
C      70.69440000    27.02630000    48.54900000
C      66.72580000    38.13520000    43.68380000
C      68.21160000    26.91590000    42.80120000
C      66.66870000    35.18600000    42.35570000
C      50.85920000    32.58600000    70.28830000
C      61.90410000    34.77160000    68.76930000
C      55.43650000    29.58110000    72.55900000
C      61.61830000    30.41660000    41.95880000
C      70.10280000    25.36890000    49.61520000
C      50.71070000    26.74510000    65.98520000
C      70.47930000    21.09600000    50.24650000
C      55.81920000    28.89330000    42.28070000
C      71.00540000    30.83830000    45.25660000
C      61.88330000    29.48080000    70.21030000
C      67.12370000    35.64670000    43.92000000
C      61.03800000    37.50030000    70.55950000
C      52.51820000    40.10580000    70.20080000
C      59.72230000    23.89830000    47.03210000
C      54.73320000    26.27510000    66.28670000
C      67.65490000    33.71350000    40.28220000
C      66.36940000    31.85600000    42.89820000
C      66.93910000    22.84680000    46.88600000
C      72.87250000    25.31490000    47.33190000
C      71.98850000    25.66090000    43.85890000
C      63.01790000    37.79190000    44.28530000
C      65.46530000    24.84520000    45.31740000
C      72.22010000    29.08360000    42.50620000
C      51.21950000    27.71040000    67.92250000
C      59.97700000    24.07630000    63.74350000
C      70.21610000    26.67850000    46.14260000
C      68.74240000    23.15450000    42.92040000
C      64.55270000    21.56340000    55.12420000
C      51.31870000    34.31730000    69.43010000
C      64.59140000    23.96920000    42.99710000
C      58.55790000    22.68130000    49.76060000
C      63.83580000    19.74970000    52.43830000
C      59.06450000    31.07670000    42.15100000
C      68.34430000    24.29570000    51.52810000
C      50.52760000    40.89340000    67.84820000
C      48.22780000    39.72260000    65.22690000
C      58.92100000    27.12830000    70.80660000
C      65.56590000    19.66140000    47.05030000
C      50.21870000    38.92520000    68.38870000
C      56.42560000    24.78640000    66.79070000
C      61.78850000    21.67050000    46.44410000
C      55.90130000    35.16460000    71.09770000
C      53.12150000    32.54570000    70.30560000
C      48.99480000    30.77190000    64.53070000
C      57.80480000    27.50720000    68.74250000
C      51.41580000    28.89290000    70.92170000
C      74.31990000    27.12650000    48.58840000
C      60.64080000    35.34330000    67.99990000
C      57.58330000    28.44330000    42.05510000
C      47.94810000    28.79590000    64.45750000
C      53.17790000    40.12400000    65.89580000
C      70.78980000    28.22670000    44.28970000
C      65.56530000    23.07430000    49.76530000
C      61.55880000    32.61130000    70.95230000
C      55.71690000    38.10720000    67.22110000
C      62.48780000    39.61190000    68.53610000
C      65.57540000    21.86660000    47.38660000
C      45.97450000    35.62160000    58.28930000
C      68.30830000    29.10290000    40.86370000
C      48.92640000    39.53050000    67.33350000
C      61.05700000    40.03170000    70.74790000
C      63.46110000    26.83110000    65.98150000
C      53.53690000    28.21610000    65.68080000
C      58.90770000    20.94850000    46.18780000
C      74.44280000    30.90620000    49.49640000
C      71.16100000    23.60370000    53.74710000
C      54.84840000    25.79890000    69.55260000
C      70.67190000    36.78560000    51.03270000
C      66.38170000    37.63220000    65.24650000
C      70.75090000    33.70960000    43.58830000
C      57.36900000    31.60340000    68.13920000
C      60.23530000    33.42160000    71.25270000
C      65.84140000    37.38720000    45.33540000
C      54.68990000    34.52560000    68.77990000
C      49.20570000    41.07910000    63.86820000
C      63.31970000    22.05350000    46.10870000
C      63.43540000    22.72010000    48.99850000
C      64.60650000    33.67880000    43.41450000
C      61.35500000    20.37380000    53.50270000
C      69.49980000    28.46620000    47.51880000
C      54.75990000    43.11660000    65.70190000
C      60.64230000    26.86140000    66.84300000
C      51.77110000    33.84430000    66.11530000
C      60.84440000    35.55500000    41.07880000
C      73.57570000    32.11990000    47.19490000
C      60.57070000    26.78040000    70.43500000
C      55.52660000    42.42090000    68.74980000
C      70.05310000    25.40430000    57.15990000
C      59.80750000    33.09820000    42.94490000
C      48.33140000    29.54450000    69.04640000
C      62.33530000    30.87710000    67.17210000
C      56.82320000    23.76980000    48.48070000
C      69.21800000    37.52670000    46.69390000
C      66.68130000    28.98960000    42.37150000
C      52.50540000    22.98640000    64.11740000
C      50.07210000    28.61940000    65.01300000
C      68.31290000    34.99630000    43.22770000
C      50.97630000    24.85910000    64.93100000
C      58.05710000    33.42360000    42.01610000
C      56.66990000    33.28340000    73.30180000
C      60.89990000    28.77890000    67.96040000
C      66.90600000    23.51490000    41.59610000
C      64.77270000    30.60400000    43.45690000
C      67.81590000    23.37590000    49.21930000
C      54.55740000    31.19570000    69.55270000
C      68.72010000    24.19570000    53.05560000
C      56.66400000    26.46740000    65.49030000
C      45.47620000    36.41170000    62.23070000
C      50.35830000    38.00600000    69.82110000
C      70.09250000    26.44010000    44.54910000
C      66.63600000    19.98750000    50.20310000
C      51.18590000    41.06680000    64.18270000
C      61.20140000    32.92780000    39.86280000
C      58.34620000    33.67050000    69.39400000
C      60.37830000    29.72020000    43.17480000
C      69.43060000    22.47760000    51.91110000
C      61.01890000    34.67360000    70.05880000
C      71.33310000    23.09630000    50.96950000
C      59.12550000    40.91410000    67.37990000
C      61.05540000    31.71090000    67.83240000
C      58.86330000    34.46380000    71.36140000
C      68.13050000    28.83930000    45.83460000
C      67.37210000    29.84190000    39.15040000
C      59.35970000    31.16760000    72.13240000
C      68.20930000    21.56620000    51.97810000
C      57.30470000    34.71080000    70.31320000
C      57.93430000    43.37740000    64.75440000
C      62.69580000    28.70390000    68.48070000
C      48.48470000    40.47840000    61.41390000
C      65.48550000    28.14100000    43.28270000
C      47.28180000    38.92850000    62.65400000
C      66.50900000    26.10990000    42.30220000
C      69.24500000    37.20540000    48.32390000
C      65.48800000    20.43100000    51.15830000
C      69.27080000    21.28870000    45.34940000
C      67.75380000    36.67210000    42.24880000
C      57.14560000    24.17060000    46.25440000
C      66.83550000    20.87850000    45.82370000
C      64.17590000    26.32080000    41.42170000
C      58.95140000    34.01390000    40.93570000
C      63.94490000    21.47610000    43.76050000
C      70.53580000    26.83650000    51.95620000
C      64.60780000    41.29630000    64.31440000
C      48.02870000    38.36300000    63.98970000
C      56.71180000    42.76270000    67.45380000
C      73.24360000    29.43440000    45.18640000
C      58.28130000    25.43290000    67.27460000
C      47.17920000    38.72620000    66.01850000
C      59.70990000    32.94200000    68.27240000
C      70.51490000    32.51130000    47.88260000
C      60.87020000    20.49210000    48.73160000
C      63.07880000    37.58780000    68.06300000
C      73.96080000    29.32410000    53.86410000
C      69.76950000    21.10500000    48.65620000
C      69.34150000    29.68450000    42.58040000
C      48.55950000    36.17830000    65.00940000
C      56.70100000    27.44920000    45.17670000
C      68.68510000    31.34900000    43.10160000
C      61.85700000    22.92670000    43.43410000
C      57.92280000    40.13150000    70.94940000
C      49.41460000    25.24310000    62.04020000
C      66.62690000    36.90460000    66.59400000
C      74.04030000    30.78900000    53.15600000
C      55.73920000    23.95080000    63.33780000
C      53.94060000    37.50510000    70.11710000
C      54.96270000    34.37300000    73.01470000
C      60.32730000    39.21190000    68.95920000
C      58.90780000    21.01310000    51.38440000
C      63.63040000    20.38410000    54.46710000
C      73.44600000    25.57870000    52.49770000
C      53.50300000    29.51130000    68.64870000
C      53.03060000    27.02320000    69.63690000
C      64.24220000    26.90200000    43.43830000
C      59.46830000    26.52110000    41.21790000
C      69.78790000    22.75310000    45.91530000
C      58.17180000    31.00650000    73.15730000
C      47.87090000    34.32610000    64.07440000
C      69.13540000    24.23440000    54.61090000
C      59.50980000    37.32400000    67.67710000
C      70.24600000    31.86160000    44.36020000
C      62.75460000    19.84960000    51.11540000
C      67.59160000    31.95340000    40.15550000
C      50.74940000    30.58250000    66.01870000
C      46.56320000    36.81700000    59.03690000
C      50.12460000    36.96700000    67.51540000
C      50.40440000    36.70330000    65.28410000
C      58.49520000    24.77300000    42.41260000
C      56.16540000    38.34540000    72.52790000
C      61.05270000    41.93080000    65.49510000
C      71.57450000    27.98610000    54.55090000
C      63.96490000    21.86900000    52.50810000
C      54.58870000    22.81620000    64.83100000
C      67.85090000    22.76560000    44.20280000
C      72.72870000    32.03370000    50.61040000
C      66.73660000    27.36880000    40.65000000
C      62.91120000    24.99820000    45.72320000
C      66.75000000    21.09350000    43.73930000
C      74.51750000    29.29090000    50.81410000
C      69.78320000    30.81590000    46.94630000
C      71.25480000    37.15690000    47.28180000
C      47.73820000    29.23160000    67.23420000
C      54.08830000    36.99400000    67.09690000
C      54.34330000    33.42070000    70.79640000
C      73.73810000    34.13190000    51.38820000
C      64.16510000    31.70210000    68.94280000
C      49.05550000    37.86090000    65.25760000
C      48.95980000    25.75840000    65.43700000
C      66.57120000    28.68330000    44.77310000
C      67.92900000    22.88920000    50.71950000
C      57.74180000    23.00760000    44.10290000
C      45.57420000    30.23920000    60.76170000
C      72.02780000    27.91670000    51.08500000
C      60.79770000    30.88690000    69.81650000
C      64.76030000    30.77460000    67.43930000
C      71.78620000    23.29260000    48.04630000
C      53.43850000    31.17690000    66.85010000
C      62.19270000    27.29750000    69.12870000
C      63.42510000    24.22690000    40.11550000
C      45.31620000    35.31250000    59.71160000
C      71.27260000    29.09620000    46.07640000
C      63.91400000    37.66400000    42.29740000
C      71.21740000    27.28060000    57.00380000
C      55.78540000    23.48860000    65.73000000
C      65.85650000    22.02670000    56.21000000
C      70.88760000    26.49000000    42.31020000
C      53.27710000    24.16630000    65.64580000
C      69.65980000    27.50450000    43.57160000
C      55.81180000    28.39240000    66.60560000
C      46.01330000    32.88100000    64.71590000
C      46.10330000    37.63000000    65.02890000
C      69.89900000    28.16060000    42.15640000
C      57.04180000    33.59720000    71.33420000
C      52.37110000    31.26550000    72.00540000
C      49.98300000    25.37590000    67.38920000
C      71.48510000    33.95190000    47.84160000
C      71.42000000    29.62120000    47.97500000
C      69.73480000    24.44040000    50.74820000
C      66.78530000    21.72160000    52.70620000
C      58.39610000    29.31820000    69.60150000
C      67.26090000    38.69740000    47.47610000
C      72.21550000    32.25340000    49.02810000
C      57.48140000    38.63510000    71.50610000
C      70.92280000    26.83140000    53.69340000
C      64.10300000    35.42350000    40.50020000
C      72.15250000    31.47210000    46.74060000
C      59.97640000    28.37720000    69.08120000
C      73.34440000    34.70990000    47.29710000
C      64.34160000    23.59460000    46.11440000
C      55.03940000    36.38220000    72.80780000
C      61.11830000    43.79410000    64.10470000
C      59.76220000    36.92470000    69.88420000
C      73.25220000    31.33470000    54.52370000
C      72.46140000    27.38580000    55.79910000
C      60.75000000    23.08880000    47.99450000
C      67.43470000    36.90820000    44.69920000
C      61.06710000    36.38560000    71.87460000
C      64.34020000    20.52260000    49.51580000
C      63.31550000    34.35410000    71.55540000
C      47.74880000    35.11650000    62.24820000
C      72.13010000    27.75760000    46.16080000
C      64.26230000    37.24950000    66.64480000
C      69.20980000    29.99220000    45.02200000
C      63.24630000    35.40350000    42.44900000
C      48.88730000    29.77370000    62.87130000
C      47.62180000    36.93370000    68.17360000
C      50.40630000    24.11880000    61.92840000
C      59.75060000    42.33620000    66.64570000
C      59.79370000    36.27290000    43.19120000
C      70.92450000    24.70290000    55.93000000
C      48.32230000    35.11380000    66.15350000
C      72.03890000    22.09920000    51.87750000
C      55.79400000    24.92390000    47.03680000
C      61.28610000    41.99720000    67.70420000
C      59.14560000    38.54010000    70.47070000
C      52.80850000    25.71380000    66.54150000
C      54.04740000    41.12350000    68.01340000
C      67.52070000    32.83440000    42.37920000
C      60.87140000    31.79300000    41.85810000
C      68.05970000    19.44500000    50.52770000
C      55.22850000    43.61920000    63.91360000
C      57.27250000    22.75350000    63.58010000
C      67.91260000    20.93540000    53.73670000
C      61.24160000    20.33090000    44.86510000
C      46.07020000    35.93400000    65.18150000
C      52.63930000    29.63180000    71.73780000
C      68.14230000    25.71690000    46.40530000
C      70.62040000    29.65360000    43.64100000
C      65.03750000    33.43300000    40.36180000
C      68.71300000    23.80620000    56.06510000
C      68.41220000    24.31350000    41.82560000
C      58.29070000    29.86840000    43.60250000
C      62.15940000    40.81850000    65.71290000
C      65.97370000    21.23850000    48.99990000
C      47.08470000    33.58460000    66.09040000
C      73.55610000    27.57540000    44.63830000
C      62.37480000    19.35320000    48.94670000
C      54.68410000    28.97900000    44.48850000
C      62.27920000    21.26960000    49.51710000
C      55.10540000    38.88000000    71.10240000
C      66.69330000    19.39600000    48.58750000
C      58.34020000    22.38980000    48.05850000
C      61.13890000    21.85410000    51.03580000
C      72.91170000    28.72270000    49.35540000
C      70.67080000    23.05810000    49.16490000
C      64.96840000    26.36450000    45.23320000
C      58.38920000    35.18940000    69.29700000
C      52.03730000    33.51150000    72.07070000
C      70.70690000    24.37990000    47.10440000
C      50.12910000    42.27180000    63.81990000
C      48.73660000    33.91950000    68.90170000
C      74.18620000    28.35660000    47.28410000
C      54.23620000    27.13100000    67.72610000
C      60.27050000    21.63460000    52.30110000
C      48.13440000    32.53240000    69.53630000
C      49.04450000    27.58390000    63.54820000
C      73.69120000    27.14990000    50.10120000
C      68.57410000    38.46400000    48.78880000
C      52.70140000    37.12470000    68.75610000
C      52.14420000    37.79240000    70.60980000
C      59.67550000    28.27480000    40.52380000
C      62.33000000    21.91180000    44.51030000
C      52.59510000    36.67430000    66.59820000
C      64.79470000    35.31160000    67.89040000
C      53.85760000    39.63700000    70.70480000
C      48.31210000    27.76080000    61.35570000
C      50.39610000    39.33720000    64.55530000
C      49.58780000    29.00950000    67.33290000
C      64.48910000    31.65990000    42.22710000
C      66.04690000    23.36650000    45.60440000
C      64.13840000    29.45480000    40.35410000
C      60.60870000    30.19600000    38.99030000
C      48.90690000    36.49480000    66.67250000
C      64.90280000    29.30490000    68.03140000
C      66.27300000    25.36950000    46.80600000
C      53.18560000    34.22650000    67.04710000
C      67.89400000    27.08100000    45.16460000
C      73.06550000    33.11700000    53.69100000
C      53.03040000    35.84600000    67.90500000
C      58.94750000    24.17320000    44.02210000
C      53.29510000    39.23950000    67.43210000
C      57.82630000    39.92080000    68.91320000
C      59.98210000    25.36160000    67.13530000
C      72.43390000    25.01280000    49.64120000
C      64.26460000    34.58180000    69.20860000
C      61.67630000    24.69650000    40.86820000
C      56.38740000    30.39290000    70.84090000
C      66.92730000    33.57970000    66.68370000
C      53.47450000    34.79520000    71.52240000
C      61.72430000    24.67330000    44.55710000
C      65.15850000    27.29420000    40.14120000
C      61.65220000    21.86600000    48.07940000
C      61.60690000    28.24550000    66.24030000
C      70.36110000    27.29290000    50.24320000
C      64.25860000    40.03120000    67.80110000
C      59.41030000    22.54630000    44.03620000
C      71.16350000    35.92730000    48.30160000
C      46.07770000    29.54490000    64.42840000
C      57.05630000    21.52610000    48.30780000
C      71.59260000    30.79300000    42.95860000
C      60.50170000    20.31340000    46.82510000
C      49.98770000    33.08520000    67.20900000
C      65.07890000    36.07410000    44.27740000
C      47.55570000    30.89100000    63.33730000
C      63.78240000    30.15280000    42.22450000
C      57.94480000    41.99380000    65.69450000
C      61.38090000    34.07940000    72.06040000
C      46.84210000    29.46810000    60.52390000
C      67.48500000    20.72020000    49.13780000
C      59.38850000    43.93120000    65.61950000
C      69.01900000    21.22060000    47.32210000
C      60.78660000    28.51880000    39.30440000
C      54.42020000    28.24390000    69.61680000
C      59.53850000    41.57540000    69.24730000
C      61.43080000    33.49000000    41.91800000
C      58.23060000    32.19470000    43.16550000
C      58.29010000    35.35870000    43.07600000
C      66.30020000    28.86550000    40.02520000
C      53.51520000    38.49410000    68.78550000
C      64.56090000    31.04810000    40.21820000
C      56.38380000    43.78700000    65.42270000
C      67.40020000    23.32880000    52.54300000
C      62.10830000    38.72730000    66.78050000
C      49.71020000    34.48920000    64.62180000
C      73.91450000    31.54120000    51.53850000
C      69.16790000    26.80080000    48.42280000
C      52.98280000    42.20610000    64.44990000
C      55.65370000    28.08490000    72.09690000
C      72.22270000    33.00030000    55.59790000
C      52.70130000    33.77920000    69.06820000
C      72.31140000    35.53520000    51.13700000
C      54.37050000    32.06300000    72.79700000
C      58.43460000    22.47550000    45.98360000
C      47.30670000    32.87670000    63.18100000
C      63.38900000    23.94420000    44.04220000
C      62.90180000    21.90250000    51.19440000
C      51.07260000    24.74070000    63.33370000
C      66.20670000    30.30950000    66.56660000
C      62.52960000    24.88590000    43.17370000
C      48.93250000    37.87410000    67.78570000
C      59.00050000    38.77330000    67.13960000
C      70.83810000    24.06360000    43.88220000
C      70.02780000    32.60870000    42.84080000
C      65.36350000    30.06540000    41.60870000
C      62.24910000    36.24200000    67.52810000
C      72.14550000    26.20540000    45.38310000
C      57.38630000    22.14710000    51.39030000
C      72.04920000    24.56200000    54.91490000
C      52.57520000    35.83230000    69.93180000
C      64.12360000    21.88460000    41.96540000
C      59.99710000    31.33690000    39.94480000
C      65.18570000    37.65080000    43.93740000
C      63.73090000    20.00100000    45.64050000
C      72.65960000    27.88020000    43.38580000
C      47.21040000    34.07980000    69.05120000
C      57.81980000    25.52050000    64.83170000
C      58.84170000    32.14180000    69.27480000
C      50.54690000    42.67090000    61.95820000
C      53.64180000    23.96800000    64.20210000
C      52.04260000    28.15920000    66.14850000
C      60.15990000    25.14300000    40.68730000
C      65.90100000    22.07820000    54.51030000
C      61.94650000    36.03520000    69.66700000
C      45.95810000    35.02030000    63.14360000
C      54.85590000    30.93680000    67.41790000
C      56.74350000    26.08900000    68.93620000
C      68.29280000    26.22370000    40.67870000
C      67.75170000    30.84060000    41.41140000
C      51.14760000    30.67060000    70.13670000
C      59.72880000    24.75890000    65.60650000
C      58.42860000    26.87720000    65.87720000
C      71.32400000    30.67440000    41.39130000
C      72.49830000    30.06810000    50.44400000
C      52.15320000    31.85340000    66.20110000
C      72.01750000    31.55750000    52.59640000
C      73.83430000    31.09780000    45.69400000
C      64.14630000    21.16730000    47.85290000
C      50.96330000    40.63660000    69.39230000
C      48.19190000    31.53670000    66.64220000
C      47.05340000    31.40080000    65.58780000
C      61.03480000    31.36040000    71.94270000
C      54.75850000    30.77350000    71.64610000
C      57.97190000    31.80230000    41.21040000
C      55.12240000    39.44970000    66.74170000
C      65.68500000    36.74210000    42.48810000
C      59.26710000    26.25930000    69.11980000
C      63.27870000    32.85280000    69.41150000
C      48.81900000    25.90240000    63.79950000
C      68.33260000    24.90370000    49.79930000
C      58.57360000    24.18320000    45.53650000
C      51.85340000    39.61320000    67.85740000
C      62.80970000    40.13690000    67.03360000
C      53.03940000    42.84530000    66.67020000
C      57.09790000    23.02770000    49.78060000
C      69.42360000    37.23250000    45.08810000
C      61.19130000    25.30300000    68.12060000
C      57.63440000    28.70760000    67.10780000
C      58.00510000    25.00360000    69.49550000
C      67.31790000    25.77660000    44.22680000
C      59.89590000    30.14360000    68.71470000
C      59.82730000    23.76500000    42.85310000
C      52.83640000    28.69910000    70.35840000
C      65.79270000    33.92020000    41.71850000
C      65.17130000    21.70880000    45.51350000
C      56.54200000    33.10660000    68.22770000
C      51.81870000    38.63160000    69.24950000
C      68.53450000    23.73500000    47.21060000
C      53.00770000    43.54040000    63.07480000
C      67.20360000    38.56980000    45.68310000
C      69.77540000    37.72340000    49.99270000
C      47.52620000    32.85510000    64.82180000
C      50.80750000    35.26810000    66.80540000
C      57.57440000    27.01800000    67.22700000
C      72.28880000    25.93840000    51.57720000
C      45.28940000    32.60330000    62.42960000
C      65.13170000    23.61570000    48.28750000
C      60.40090000    40.10430000    66.44590000
C      59.73510000    21.73160000    48.68750000
C      74.32900000    27.25040000    53.17860000
C      49.72980000    29.15600000    69.98210000
C      64.82920000    40.44900000    66.10100000
C      56.26940000    35.59590000    69.05340000
C      69.67360000    25.33940000    52.73160000
C      61.65530000    28.00640000    41.52510000
C      62.06980000    37.28880000    42.70260000
C      67.70150000    36.89750000    46.30160000
C      61.93200000    35.11690000    43.23270000
C      47.10510000    32.76390000    61.49110000
C      61.46700000    38.20050000    68.18470000
C      52.46080000    25.00910000    68.43790000
C      53.00520000    37.47070000    71.96780000
C      72.16080000    30.71970000    49.11390000
C      63.23170000    23.37920000    41.87400000
C      71.34610000    35.37650000    46.29030000
C      55.43460000    41.23810000    67.09160000
C      54.57350000    29.71450000    70.24070000
C      70.92990000    35.46530000    50.00660000
C      72.47740000    23.60710000    46.35340000
C      52.99360000    29.75940000    66.05130000
C      56.56340000    25.74990000    45.03750000
C      61.15200000    25.73760000    42.58200000
C      74.88840000    28.72190000    48.74880000
C      67.71950000    20.04880000    52.11860000
C      70.80620000    29.01260000    49.45010000
C      64.28010000    33.08150000    68.06290000
C      49.30280000    27.08090000    66.45840000
C      63.10220000    33.86500000    43.09980000
C      71.79010000    34.46470000    53.12740000
C      45.81760000    31.11310000    64.49030000
C      49.79200000    40.98370000    65.99200000
C      52.22830000    31.72040000    68.63790000
C      46.91320000    37.35300000    62.65630000
C      66.96520000    24.44620000    45.06990000
C      64.10360000    29.62840000    69.53130000
C      72.79270000    23.33130000    50.66800000
C      67.13600000    24.71860000    48.37920000
C      62.96720000    30.53520000    70.16430000
C      51.73210000    41.02390000    65.94480000
C      64.04750000    38.83090000    66.10920000
C      54.80150000    26.63650000    71.24050000
C      65.37530000    25.40410000    39.89110000
C      55.71760000    32.52630000    72.11260000
C      55.79760000    26.63430000    67.89840000
C      71.47160000    25.67150000    46.81510000
C      71.81900000    33.47660000    51.58170000
C      69.89180000    31.96960000    41.47690000
C      62.99800000    41.80520000    64.83930000
C      48.83690000    33.68140000    66.38810000
C      65.26080000    20.86660000    53.75580000
C      54.74640000    36.65310000    68.42490000
C      69.19040000    22.82840000    49.87250000
C      57.48600000    25.52920000    43.50310000
C      68.74300000    36.31520000    44.01880000
C      72.60550000    30.47950000    44.09350000
C      55.89400000    29.51390000    69.42290000
C      56.80240000    30.65760000    42.55430000
C      63.41350000    31.82190000    38.95770000
C      72.70940000    29.61310000    52.03570000
C      72.22710000    25.16000000    53.33540000
C      57.01370000    31.18100000    72.11480000
C      63.17510000    27.38730000    39.72000000
C      71.24450000    36.11550000    52.71910000
C      56.08140000    31.45570000    68.95120000
C      61.34740000    26.01110000    65.01060000
C      57.65320000    41.30640000    68.34440000
C      55.80980000    25.03040000    64.40840000
C      47.17520000    36.15170000    66.45710000
C      51.03540000    28.47700000    69.30380000
C      62.86650000    29.33650000    41.21570000
C      72.65460000    35.49520000    48.69340000
C      59.50000000    35.85670000    71.16820000
C      72.23060000    27.43980000    53.22250000
C      69.72220000    22.94330000    47.70650000
C      62.98990000    20.19230000    47.13120000
C      46.20660000    38.48730000    60.56620000
C      73.69590000    27.97560000    54.56650000
C      68.93440000    25.31710000    47.70320000
C      71.85490000    27.72720000    47.77060000
C      48.00870000    26.99710000    65.25140000
C      58.46090000    33.18350000    72.38410000
C      57.15370000    37.22370000    71.91350000
C      56.91010000    35.01210000    72.26770000
C      48.16690000    39.87270000    63.43370000
C      48.59800000    26.41480000    60.49580000
C      46.79620000    28.35920000    66.08030000
C      59.62150000    25.89480000    43.84500000
C      55.30000000    38.37180000    69.17490000
C      68.49890000    20.94060000    50.24300000
C      49.96640000    31.26070000    68.22950000
C      62.10160000    21.58730000    52.58340000
C      59.44650000    28.12550000    42.74840000
C      51.39120000    26.78950000    63.77000000
C      56.52080000    26.85510000    41.95170000
C      54.19760000    28.43520000    71.88290000
C      63.71040000    18.83510000    47.87850000
C      65.53380000    32.03570000    66.20600000
C      62.75280000    32.74730000    41.91630000
C      60.79490000    27.08520000    39.75060000
C      59.41630000    27.52480000    67.53430000
C      58.58000000    30.84990000    40.22170000
C      62.28820000    25.66910000    66.93750000
C      64.90220000    36.32680000    69.89640000
C      66.98430000    34.03900000    43.38740000
C      47.36890000    35.29560000    67.99980000
C      68.66440000    34.48760000    44.62060000
C      48.35300000    31.13490000    68.14620000
C      53.93870000    31.90150000    68.37940000
C      68.98550000    34.19330000    46.22070000
C      68.35720000    22.35390000    54.10330000
C      54.14330000    22.88080000    63.17740000
C      66.71600000    34.74120000    65.62040000
C      63.02400000    26.96280000    67.44140000
C      61.66710000    26.32490000    41.13240000
C      47.86850000    28.65300000    62.94560000
C      53.90400000    25.46170000    67.96810000
C      67.60260000    29.77020000    43.84080000
C      63.48960000    29.89320000    67.61180000
C      53.40960000    24.06140000    62.60270000
C      58.21440000    30.07050000    70.89630000
C      69.61260000    28.53040000    45.95490000
C      61.31120000    33.37840000    68.99090000
C      71.44670000    28.62160000    52.67400000
C      56.46840000    38.66490000    70.31520000
C      60.15250000    29.85490000    41.11630000
C      74.49610000    30.58020000    46.97850000
C      49.57120000    30.82150000    70.37400000
C      64.72410000    28.09390000    65.05520000
C      68.18290000    22.89920000    46.01440000
C      53.99410000    41.60600000    66.57190000
C      58.55320000    26.84300000    42.39490000
C      63.51200000    30.09960000    39.10930000
C      69.70950000    34.52460000    42.85580000
C      67.24150000    22.08750000    48.47100000
C      51.43410000    36.82120000    71.52520000
C      56.37030000    28.05720000    68.87920000
C      54.71080000    24.96450000    65.43210000
