139
explore s0: 24 substrate + 2 neutralisers + 113 catalytic
C     60.11193800    34.38396900    57.21013200
H     60.60719900    33.42993900    57.38460900
H     60.72469300    35.27181800    57.05919300
C     58.78057700    34.50353200    57.15195800
C     58.09218200    35.83426100    56.89335400
O     58.81246700    36.81821800    56.57878900
O     56.83954900    35.84891700    57.00961700
O     57.93461500    33.42640300    57.34599800
C     57.67693600    32.53773200    56.20080600
H     57.01901700    31.76376900    56.62407200
C     58.98648700    31.96184000    55.79317200
H     59.46393000    31.24298300    56.46049600
C     59.68310500    32.48267100    54.76815100
C     59.06432100    33.48370900    53.89317900
H     59.70236100    33.90454400    53.11096900
C     57.78125300    33.86565900    54.03153300
H     57.33218100    34.60235400    53.35662900
C     56.88979900    33.27109300    55.08618200
H     56.34719000    34.09064800    55.58588000
O     55.96286300    32.39770700    54.43466800
H     55.31084500    32.10952700    55.09277000
C     61.12320000    32.06212600    54.53420800
O     61.78496200    31.70232800    55.54338100
O     61.54107100    32.10651300    53.35273800
C      56.89929012    38.07196516    56.44899647
C      63.56063336    31.35003838    54.14522169
C      64.24830000    31.15780000    60.51760000
C      66.02930000    30.64060000    54.43040000
C      66.29910000    31.86660000    55.52030000
C      54.48360000    37.48440000    59.04150000
C      53.36920000    30.60690000    52.48330000
C      63.91570000    29.67040000    57.46250000
C      52.54140000    32.79400000    57.01080000
C      62.07280000    36.51710000    59.67510000
C      64.42380000    28.50510000    59.20700000
C      54.55840000    31.73740000    58.80780000
C      61.72440000    29.99320000    61.11780000
C      63.03720000    29.32590000    51.80970000
C      65.12490000    32.69920000    56.07860000
C      63.09260000    26.80530000    53.20430000
C      66.91700000    33.31750000    53.60060000
C      61.36150000    29.72220000    58.55640000
C      55.62880000    34.20970000    50.36840000
C      64.70760000    28.67210000    53.91140000
C      61.66880000    36.11620000    50.13610000
C      58.13400000    29.81270000    59.11180000
C      51.06860000    33.59500000    55.02810000
C      63.09010000    27.45350000    54.74400000
C      59.95990000    35.21980000    50.21350000
C      58.34240000    39.08830000    53.91910000
C      66.87590000    30.76980000    52.92170000
C      53.52730000    35.56000000    55.26760000
C      62.83000000    33.08690000    60.92820000
C      55.00650000    29.86140000    52.15280000
C      60.66610000    28.40310000    54.27480000
C      58.70030000    39.86330000    58.33030000
C      57.56010000    32.31690000    50.55370000
C      54.46480000    38.86290000    52.55570000
C      64.92370000    35.17620000    56.20500000
C      65.85580000    33.62150000    55.14300000
C      64.26890000    34.24200000    54.34710000
C      65.02710000    32.57670000    53.41020000
C      64.73790000    30.90070000    52.52140000
C      58.92320000    37.21580000    60.21940000
C      56.92150000    37.49970000    52.07960000
C      65.78710000    35.57940000    54.48460000
C      57.34440000    31.10210000    60.06490000
C      53.56090000    36.99570000    56.47370000
C      66.41620000    28.76450000    54.92960000
C      62.40250000    31.12560000    59.02750000
C      51.20110000    31.12220000    56.42250000
C      61.23120000    34.32370000    50.33980000
C      54.31480000    35.90320000    53.28040000
C      62.19090000    31.08900000    48.99960000
C      62.42400000    37.88060000    57.76140000
C      58.99810000    35.46880000    60.83280000
C      61.78910000    32.77700000    47.88340000
C      54.10570000    32.61240000    51.17410000
C      56.85350000    30.73690000    51.46760000
C      62.85270000    34.13630000    50.79700000
C      53.22780000    34.69260000    52.95160000
C      63.89340000    35.30270000    49.51940000
C      53.41430000    31.82020000    57.83170000
C      51.84890000    32.12390000    54.78950000
C      56.62110000    37.74190000    61.10500000
C      56.77920000    40.40180000    58.42840000
C      64.29220000    29.48030000    50.91970000
C      59.74580000    33.69490000    48.92130000
C      59.23740000    32.08930000    50.46970000
C      64.15850000    36.76940000    54.65440000
C      65.58510000    34.12450000    53.27000000
C      62.68520000    29.61480000    59.50770000
C      63.16280000    28.62440000    56.53400000
C      54.37060000    36.78300000    54.66860000
C      63.77240000    32.48980000    49.44520000
C      60.69710000    31.86190000    61.29370000
C      58.45640000    38.70110000    52.43050000
C      55.75340000    36.25410000    60.32880000
C      59.02920000    31.08470000    60.10650000
C      56.38410000    38.90940000    58.67480000
C      54.92550000    28.93900000    54.86420000
C      59.74100000    27.95750000    56.49920000
C      62.37300000    28.03870000    59.68640000
C      60.25040000    28.98070000    52.39940000
C      61.40060000    36.27510000    51.64920000
C      61.65060000    27.63300000    52.73370000
C      56.48510000    39.41500000    57.12380000
C      61.06170000    31.37610000    59.79050000
C      61.86770000    27.95620000    58.12000000
C      63.11600000    28.97000000    53.72900000
C      67.01060000    33.28160000    56.42670000
C      51.93780000    34.37350000    56.91100000
C      62.96340000    31.55960000    61.62000000
C      52.80220000    37.74330000    53.75010000
C      57.54890000    29.11090000    51.77830000
C      52.82930000    30.76860000    56.91410000
C      63.39230000    33.63840000    48.38680000
C      56.63940000    37.70550000    53.67160000
C      58.06580000    39.55840000    60.09180000
C      54.06130000    28.51690000    52.93170000
C      64.77760000    27.69810000    52.64340000
C      63.05290000    35.16570000    52.19360000
C      60.78510000    31.81820000    49.93190000
C      51.27090000    33.38980000    58.48290000
C      65.87460000    32.10370000    52.08390000
C      62.21780000    32.63520000    49.94030000
C      59.74750000    29.87320000    59.33190000
C      64.25690000    33.56660000    51.66390000
C      53.22900000    29.64150000    54.46460000
C      58.45020000    30.52940000    51.76080000
C      64.41800000    32.31920000    59.23870000
C      63.12610000    36.77850000    58.53710000
C      64.09530000    29.06670000    55.28390000
C      62.53310000    36.06190000    53.63890000
C      53.22030000    37.99100000    55.36270000
C      58.91960000    28.92950000    53.56040000
C      57.86830000    40.16700000    57.07400000
C      66.30550000    29.32730000    53.20550000
C      56.76390000    39.43190000    53.52060000
