234
explore m4_ge7: 24 substrate + 210 active C quasi-atoms
C     60.11193800    34.38396900    57.21013200
H     60.60719900    33.42993900    57.38460900
H     60.72469300    35.27181800    57.05919300
C     58.78057700    34.50353200    57.15195800
C     58.09218200    35.83426100    56.89335400
O     58.81246700    36.81821800    56.57878900
O     56.83954900    35.84891700    57.00961700
O     57.93461500    33.42640300    57.34599800
C     57.67693600    32.53773200    56.20080600
H     57.01901700    31.76376900    56.62407200
C     58.98648700    31.96184000    55.79317200
H     59.46393000    31.24298300    56.46049600
C     59.68310500    32.48267100    54.76815100
C     59.06432100    33.48370900    53.89317900
H     59.70236100    33.90454400    53.11096900
C     57.78125300    33.86565900    54.03153300
H     57.33218100    34.60235400    53.35662900
C     56.88979900    33.27109300    55.08618200
H     56.34719000    34.09064800    55.58588000
O     55.96286300    32.39770700    54.43466800
H     55.31084500    32.10952700    55.09277000
C     61.12320000    32.06212600    54.53420800
O     61.78496200    31.70232800    55.54338100
O     61.54107100    32.10651300    53.35273800
C      62.49090000    23.65170000    52.77400000
C      59.35530000    32.90650000    44.98100000
C      69.66580000    33.73210000    51.37810000
C      62.33450000    28.81390000    65.15030000
C      68.23430000    34.51490000    47.02810000
C      57.00330000    28.04070000    47.19090000
C      54.84800000    32.02210000    65.47600000
C      70.01020000    31.62910000    52.57790000
C      51.72540000    28.42560000    62.16760000
C      56.94910000    35.15280000    66.15750000
C      60.83390000    26.30130000    47.15980000
C      54.47840000    35.64070000    65.23610000
C      68.05070000    26.71200000    48.98210000
C      55.10490000    38.54280000    65.97220000
C      56.88680000    28.41780000    64.40380000
C      54.85260000    26.71480000    64.19650000
C      64.16170000    24.18130000    48.78060000
C      53.99400000    26.95000000    62.76830000
C      49.58350000    29.53380000    62.01790000
C      69.76740000    29.22910000    53.89680000
C      52.24300000    31.01070000    64.71710000
C      62.30020000    37.75960000    64.92220000
C      60.59060000    33.77410000    67.11520000
C      61.78630000    28.25820000    44.65150000
C      58.18370000    25.92930000    62.63080000
C      58.05930000    32.81320000    67.34890000
C      62.76000000    31.43840000    66.10350000
C      51.92300000    34.47620000    65.04270000
C      58.08210000    36.61670000    66.93370000
C      62.03770000    34.25860000    65.69080000
C      66.67440000    34.02540000    46.83170000
C      63.78540000    27.43750000    46.59190000
C      53.36010000    38.47400000    64.32620000
C      58.20030000    25.35610000    49.37660000
C      59.38870000    36.94460000    65.67670000
C      60.38900000    24.27180000    48.07130000
C      53.14560000    28.39370000    63.20810000
C      59.68490000    32.49460000    67.21500000
C      59.60620000    35.03980000    67.20990000
C      49.22460000    30.62780000    60.66920000
C      56.80700000    30.28680000    66.63260000
C      49.97940000    32.37940000    61.55770000
C      63.92220000    29.71170000    45.53360000
C      66.28630000    26.54160000    48.98770000
C      66.36210000    33.43780000    45.25500000
C      60.58490000    33.83430000    44.96040000
C      58.45870000    27.26490000    63.57860000
C      59.89870000    29.11200000    64.87160000
C      68.78550000    32.68210000    47.20600000
C      65.35640000    24.09720000    54.14820000
C      60.36210000    26.59360000    45.68370000
C      63.32850000    23.14180000    50.69910000
C      70.06330000    28.29850000    51.49350000
C      64.32060000    32.50440000    45.31030000
C      50.27170000    34.18560000    62.17200000
C      68.03190000    29.97560000    46.72570000
C      69.91640000    27.51050000    52.91550000
C      65.60110000    23.63840000    51.80270000
C      58.16940000    38.30890000    65.23190000
C      59.77190000    31.20230000    44.04410000
C      61.71570000    27.47330000    64.54290000
C      65.69550000    26.97790000    46.49460000
C      65.12670000    28.83980000    45.16420000
C      69.18980000    27.16940000    50.57590000
C      53.55560000    29.31710000    64.92400000
C      56.37010000    26.32380000    64.20040000
C      59.85790000    30.24640000    66.60870000
C      63.81800000    24.51370000    50.23580000
C      59.06520000    23.59060000    49.89790000
C      58.16960000    31.32900000    67.09130000
C      54.83820000    30.21650000    64.83070000
C      50.65320000    32.06490000    63.41810000
C      63.78520000    34.27330000    65.09350000
C      59.59120000    25.58470000    46.70120000
C      69.66820000    33.69510000    48.66040000
C      51.87920000    30.25130000    62.98960000
C      59.13300000    29.16930000    44.62590000
C      68.39410000    26.33740000    55.86340000
C      62.24210000    30.27240000    44.03830000
C      58.23180000    28.18390000    65.62990000
C      60.87600000    30.93980000    65.51130000
C      66.38980000    36.54630000    47.93610000
C      69.02660000    28.89420000    48.43080000
C      68.34130000    26.71090000    53.38630000
C      55.25780000    33.21110000    66.87890000
C      62.79780000    25.06680000    48.72500000
C      62.66660000    28.46320000    63.57290000
C      70.85490000    32.25780000    51.39730000
C      57.68260000    39.88160000    65.69760000
C      62.37510000    32.70590000    43.89040000
C      51.14290000    37.15630000    63.20720000
C      50.74800000    30.80130000    62.01780000
C      61.87620000    24.51290000    47.62320000
C      66.90030000    26.16070000    50.44310000
C      64.36110000    36.43400000    46.57940000
C      65.79110000    32.06360000    44.83580000
C      60.92530000    38.53970000    64.80760000
C      64.13710000    30.61720000    44.31780000
C      70.29780000    31.21550000    49.73110000
C      55.75480000    28.61400000    65.50240000
C      63.02290000    36.44180000    65.14370000
C      68.33820000    27.16940000    51.94470000
C      61.34430000    31.90550000    66.71570000
C      60.33880000    27.54810000    63.72620000
C      61.92210000    25.99330000    46.06640000
C      58.62430000    28.75130000    46.08570000
C      64.26670000    33.70530000    44.37460000
C      67.77600000    27.65170000    47.70740000
C      56.83990000    34.12400000    67.27180000
C      50.40080000    33.62730000    63.65740000
C      61.22010000    23.18460000    50.05310000
C      51.77270000    36.83420000    65.00760000
C      52.76110000    35.71270000    65.60790000
C      50.10870000    36.54490000    62.18350000
C      53.47810000    32.86700000    66.03510000
C      61.96990000    36.16430000    66.56120000
C      67.97500000    25.12460000    52.53800000
C      65.84890000    24.39480000    49.80490000
C      65.78510000    30.63170000    46.11670000
C      63.70670000    25.14100000    47.23730000
C      58.33020000    34.27870000    66.37440000
C      55.62620000    35.04060000    66.91100000
C      70.64070000    29.89640000    51.64230000
C      64.70110000    25.63460000    48.80620000
C      60.18290000    27.89520000    44.92570000
C      63.79340000    32.57340000    64.89100000
C      66.77620000    28.49640000    46.27060000
C      59.47810000    39.24300000    65.86710000
C      58.09250000    31.54520000    45.42710000
C      62.84880000    28.38500000    45.80230000
C      50.99980000    35.60150000    64.52240000
C      53.77540000    37.09120000    65.93550000
C      56.48970000    37.20280000    66.53760000
C      64.75920000    22.91210000    53.42550000
C      58.48830000    27.19140000    45.79560000
C      51.61940000    28.82730000    63.65800000
C      54.94020000    30.73300000    66.26770000
C      69.56280000    31.72680000    48.24270000
C      67.05050000    31.35080000    45.62740000
C      57.72340000    24.74420000    50.81380000
C      57.94510000    26.20590000    46.80700000
C      62.72920000    34.05890000    45.14730000
C      63.41360000    33.13000000    66.24280000
C      70.43160000    32.99880000    50.07220000
C      65.31310000    35.03600000    45.11920000
C      49.18750000    31.06690000    62.11580000
C      51.64390000    26.94780000    62.60710000
C      61.96250000    23.88450000    51.16660000
C      57.15900000    28.59560000    45.66740000
C      66.55370000    24.88870000    53.70160000
C      67.61200000    32.70360000    46.04620000
C      62.75120000    31.52360000    44.94160000
C      60.59590000    29.69460000    44.19410000
C      60.61260000    25.65090000    45.10160000
C      62.10290000    26.24880000    44.63510000
C      62.05670000    28.53230000    43.47420000
C      56.73570000    30.19240000    67.66550000
C      68.34430000    24.29570000    51.52810000
C      60.64080000    35.34330000    67.99990000
C      65.56530000    23.07430000    49.76530000
C      55.71690000    38.10720000    67.22110000
C      53.53690000    28.21610000    65.68080000
C      57.36900000    31.60340000    68.13920000
C      54.68990000    34.52560000    68.77990000
C      63.43540000    22.72010000    48.99850000
C      69.49980000    28.46620000    47.51880000
C      51.77110000    33.84430000    66.11530000
C      62.33530000    30.87710000    67.17210000
C      64.77270000    30.60400000    43.45690000
C      56.66400000    26.46740000    65.49030000
C      58.34620000    33.67050000    69.39400000
C      61.05540000    31.71090000    67.83240000
C      68.13050000    28.83930000    45.83460000
C      70.53580000    26.83650000    51.95620000
C      59.70990000    32.94200000    68.27240000
C      59.50980000    37.32400000    67.67710000
C      50.74940000    30.58250000    66.01870000
C      62.91120000    24.99820000    45.72320000
C      69.78320000    30.81590000    46.94630000
C      54.08830000    36.99400000    67.09690000
C      66.57120000    28.68330000    44.77310000
C      53.43850000    31.17690000    66.85010000
C      55.81180000    28.39240000    66.60560000
C      60.75000000    23.08880000    47.99450000
C      68.14230000    25.71690000    46.40530000
C      64.96840000    26.36450000    45.23320000
C      58.38920000    35.18940000    69.29700000
C      52.59510000    36.67430000    66.59820000
C      66.27300000    25.36950000    46.80600000
C      53.18560000    34.22650000    67.04710000
C      53.03040000    35.84600000    67.90500000
C      61.60690000    28.24550000    66.24030000
C      70.36110000    27.29290000    50.24320000
C      49.71020000    34.48920000    64.62180000
C      69.16790000    26.80080000    48.42280000
C      59.00050000    38.77330000    67.13960000
C      58.84170000    32.14180000    69.27480000
C      54.85590000    30.93680000    67.41790000
C      58.42860000    26.87720000    65.87720000
C      52.15320000    31.85340000    66.20110000
C      68.33260000    24.90370000    49.79930000
C      57.63440000    28.70760000    67.10780000
C      56.54200000    33.10660000    68.22770000
C      65.13170000    23.61570000    48.28750000
C      56.26940000    35.59590000    69.05340000
C      52.99360000    29.75940000    66.05130000
C      70.80620000    29.01260000    49.45010000
C      67.13600000    24.71860000    48.37920000
C      56.08140000    31.45570000    68.95120000
C      53.93870000    31.90150000    68.37940000
