82
-2 1 -838.6936772552341
C       54.66873463    34.18584000    60.20427995
H       55.45531717    34.27760601    59.45076033
H       54.52263357    35.00357007    60.91113268
C       53.87945828    33.10217961    60.23597055
C       52.74842086    32.96683020    61.22052012
O       52.66612489    33.77705372    62.20342115
O       51.86941292    32.06786050    61.02270553
O       53.98853286    32.12743106    59.28092647
C       54.74536243    30.92142153    59.58021017
H       54.28141798    30.13352592    58.97080280
C       54.58061507    30.68211907    61.04476173
H       53.61683338    30.31233736    61.38904158
C       55.48357293    31.16489338    61.93483985
C       56.77931050    31.68126250    61.48237293
H       57.46912727    32.07935807    62.22812231
C       57.11135188    31.64523471    60.17528573
H       58.09088044    31.99611457    59.83628285
C       56.21568872    30.99474161    59.14334712
H       56.25869418    31.53660121    58.18394562
O       56.62784041    29.64511047    59.01087838
H       57.32415030    29.57451792    58.33419642
C       55.07748615    31.34015353    63.34708142
O       53.82895747    31.11205099    63.70305107
O       55.86807626    31.79232234    64.20187711
C       64.98840000    23.56910000    52.59720000
O       66.17222500    23.63087600    52.20066300
O       64.27711600    22.54171700    52.62975900
H       64.53042100    24.50495000    52.94996100
C       70.37930000    29.88280000    51.96570000
O       71.56312500    29.94457600    51.56916300
O       69.66801600    28.85541700    51.99825900
H       69.92132100    30.81865000    52.31846100
C       66.21710000    26.53760000    47.68760000
O       67.40092500    26.59937600    47.29106300
O       65.50581600    25.51021700    47.72015900
H       65.75912100    27.47345000    48.04036100
C       69.85360000    34.71120000    50.33630000
O       71.03742500    34.77297600    49.93976300
O       69.14231600    33.68381700    50.36885900
H       69.39562100    35.64705000    50.68906100
C       53.78910000    33.23890000    65.89740000
N       53.93967700    33.62412000    64.63334600
H       53.62916000    34.28662200    65.32960000
H       54.13584600    32.66908200    64.89701300
N       53.38020100    34.11130400    66.81424900
H       53.57637000    33.15626600    67.07791600
H       53.49454900    34.40384000    65.85432800
N       54.04742100    31.98127600    66.24460500
H       54.16177000    32.27381100    65.28468400
H       53.73690400    32.64377800    66.94085900
C       49.95840000    33.58120000    62.71040000
N       50.10897700    33.96642000    61.44634600
H       49.79846000    34.62892200    62.14260000
H       50.30514600    33.01138200    61.71001300
N       49.54950100    34.45360400    63.62724900
H       49.74567000    33.49856600    63.89091600
H       49.66384900    34.74614000    62.66732800
N       50.21672100    32.32357600    63.05760500
H       50.33107000    32.61611100    62.09768400
H       49.90620400    32.98607800    63.75385900
C       59.78940000    24.69200000    48.16450000
O       60.97322500    24.75377600    47.76796300
O       59.07811600    23.66461700    48.19705900
H       59.33142100    25.62785000    48.51726100
C       63.46380000    32.23990000    44.33800000
O       64.64762500    32.30167600    43.94146300
O       62.75251600    31.21251700    44.37055900
H       63.00582100    33.17575000    44.69076100
C       53.41980000    28.24940000    64.13750000
N       53.57037700    28.63462000    62.87344600
H       53.25986000    29.29712200    63.56970000
H       53.76654600    27.67958200    63.13711300
N       53.01090100    29.12180400    65.05434900
H       53.20707000    28.16676600    65.31801600
H       53.12524900    29.41434000    64.09442800
N       53.67812100    26.99177600    64.48470500
H       53.79247000    27.28431100    63.52478400
H       53.36760400    27.65427800    65.18095900
C       56.20460000    30.65050000    45.07630000
O       57.38842500    30.71227600    44.67976300
O       55.49331600    29.62311700    45.10885900
H       55.74662100    31.58635000    45.42906100
