44
-2 1 -837.3010127072657
C       57.38938994    38.09661168    60.02958805
H       57.31092772    39.06985936    59.54049323
H       57.84843037    38.03433637    61.01606748
C       56.91667464    36.98688283    59.44307561
C       57.00189282    35.63767760    60.13734250
O       58.07578318    35.33785718    60.72032482
O       55.99832987    34.87054090    60.09511947
O       56.31958201    37.06189640    58.21902880
C       56.37122465    35.89412322    57.38561313
H       55.67860592    35.14629183    57.81288826
C       57.70596765    35.21491480    57.33078125
H       58.39805159    35.26965547    58.17186173
C       57.91394091    34.24318971    56.41970086
C       56.94996999    34.09582500    55.31703048
H       57.07682153    33.24450676    54.64509946
C       55.94909893    34.98404652    55.13818257
H       55.26169577    34.91587920    54.28919142
C       55.79704757    36.20698294    56.01772674
H       56.37215071    37.04139903    55.55828075
O       54.42403279    36.55444525    56.11308954
H       54.37758713    37.36955961    56.63548985
C       58.87921774    33.11227275    56.81199757
O       59.76426137    33.37835245    57.66233700
O       58.56418061    31.98742359    56.36023290
C       57.49940000    32.31300000    60.99950000
N       57.64997700    32.69822000    59.73544600
H       57.33946000    33.36072200    60.43170000
H       57.84614600    31.74318200    59.99911300
N       57.09050100    33.18540400    61.91634900
H       57.28667000    32.23036600    62.18001600
H       57.20484900    33.47794000    60.95642800
N       57.75772100    31.05537600    61.34670500
H       57.87207000    31.34791100    60.38678400
H       57.44720400    31.71787800    62.04295900
C       64.30860000    30.09970000    52.53550000
O       65.49242500    30.16147600    52.13896300
O       63.59731600    29.07231700    52.56805900
H       63.85062100    31.03555000    52.88826100
Ar      60.46946586    35.96590609    59.24195562
Ar      59.35348722    31.02229137    52.89271569
Ar      58.38677147    36.64990913    53.74949127
Ar      61.19263583    30.67606811    57.90805574
Ar      55.00587540    32.33032501    57.70649281
Ar      62.29710818    33.97454827    55.14633628
