94
-2 1 -840.1607130007749
C       52.77726054    36.84480249    61.41207987
H       52.83980921    37.33434273    60.44168029
H       52.25330718    37.49248170    62.22403936
C       53.14341971    35.62440030    61.83632948
C       52.96608046    35.16511037    63.29750517
O       51.93760231    34.43404562    63.46825688
O       53.77631953    35.55328684    64.13661312
O       53.58960292    34.76962243    60.90904359
C       54.86172282    34.08899496    61.11932640
H       54.92569818    33.42893601    60.23529021
C       54.87564926    33.28134769    62.37733984
H       53.93157059    32.88504648    62.74573080
C       56.02306303    32.98683243    63.01829712
C       57.29608464    33.47135334    62.46436051
H       58.22807731    33.04399856    62.83560687
C       57.30422269    34.40860592    61.49790241
H       58.23998381    34.77303983    61.06018152
C       56.02129198    35.08480430    61.06091315
H       55.82097565    35.85753148    61.84696794
O       56.01591737    35.66703399    59.79593329
H       56.91256315    35.88852559    59.49814081
C       55.96714343    32.15196726    64.27680643
O       54.87675483    31.60269005    64.60875111
O       57.03621143    32.04838935    64.94961514
C       69.88710000    31.08420000    49.82370000
O       71.07092500    31.14597600    49.42716300
O       69.17581600    30.05681700    49.85625900
H       69.42912100    32.02005000    50.17646100
C       62.84020000    31.66580000    65.71080000
N       62.99077700    32.05102000    64.44674600
H       62.68026000    32.71352200    65.14300000
H       63.18694600    31.09598200    64.71041300
N       62.43130100    32.53820400    66.62764900
H       62.62747000    31.58316600    66.89131600
H       62.54564900    32.83074000    65.66772800
N       63.09852100    30.40817600    66.05800500
H       63.21287000    30.70071100    65.09808400
H       62.78800400    31.07067800    66.75425900
C       48.43980000    39.26800000    57.96120000
N       48.59037700    39.65322000    56.69714600
H       48.27986000    40.31572200    57.39340000
H       48.78654600    38.69818200    56.96081300
N       48.03090100    40.14040400    58.87804900
H       48.22707000    39.18536600    59.14171600
H       48.14524900    40.43294000    57.91812800
N       48.69812100    38.01037600    58.30840500
H       48.81247000    38.30291100    57.34848400
H       48.38760400    38.67287800    59.00465900
C       52.11380000    31.52790000    64.23470000
N       52.26437700    31.91312000    62.97064600
H       51.95386000    32.57562200    63.66690000
H       52.46054600    30.95808200    63.23431300
N       51.70490100    32.40030400    65.15154900
H       51.90107000    31.44526600    65.41521600
H       51.81924900    32.69284000    64.19162800
N       52.37212100    30.27027600    64.58190500
H       52.48647000    30.56281100    63.62198400
H       52.06160400    30.93277800    65.27815900
C       57.88840000    29.31850000    65.85970000
N       58.03897700    29.70372000    64.59564600
H       57.72846000    30.36622200    65.29190000
H       58.23514600    28.74868200    64.85931300
N       57.47950100    30.19090400    66.77654900
H       57.67567000    29.23586600    67.04021600
H       57.59384900    30.48344000    65.81662800
N       58.14672100    28.06087600    66.20690500
H       58.26107000    28.35341100    65.24698400
H       57.83620400    28.72337800    66.90315900
C       58.71650000    34.44300000    44.38430000
O       59.90032500    34.50477600    43.98776300
O       58.00521600    33.41561700    44.41685900
H       58.25852100    35.37885000    44.73706100
C       67.66770000    26.14320000    50.18470000
O       68.85152500    26.20497600    49.78816300
O       66.95641600    25.11581700    50.21725900
H       67.20972100    27.07905000    50.53746100
C       63.39250000    38.57070000    46.62930000
O       64.57632500    38.63247600    46.23276300
O       62.68121600    37.54331700    46.66185900
H       62.93452100    39.50655000    46.98206100
C       51.39400000    38.88460000    63.66390000
N       51.54457700    39.26982000    62.39984600
H       51.23406000    39.93232200    63.09610000
H       51.74074600    38.31478200    62.66351300
N       50.98510100    39.75700400    64.58074900
H       51.18127000    38.80196600    64.84441600
H       51.09944900    40.04954000    63.62082800
N       51.65232100    37.62697600    64.01110500
H       51.76667000    37.91951100    63.05118400
H       51.34180400    38.28947800    64.70735900
C       69.44370000    27.99170000    58.81860000
O       70.62752500    28.05347600    58.42206300
O       68.73241600    26.96431700    58.85115900
H       68.98572100    28.92755000    59.17136100
