94
shell7p6 K=10 +-1 net-free proxy+10.32
C     60.11193800    34.38396900    57.21013200
H     60.60719900    33.42993900    57.38460900
H     60.72469300    35.27181800    57.05919300
C     58.78057700    34.50353200    57.15195800
C     58.09218200    35.83426100    56.89335400
O     58.81246700    36.81821800    56.57878900
O     56.83954900    35.84891700    57.00961700
O     57.93461500    33.42640300    57.34599800
C     57.67693600    32.53773200    56.20080600
H     57.01901700    31.76376900    56.62407200
C     58.98648700    31.96184000    55.79317200
H     59.46393000    31.24298300    56.46049600
C     59.68310500    32.48267100    54.76815100
C     59.06432100    33.48370900    53.89317900
H     59.70236100    33.90454400    53.11096900
C     57.78125300    33.86565900    54.03153300
H     57.33218100    34.60235400    53.35662900
C     56.88979900    33.27109300    55.08618200
H     56.34719000    34.09064800    55.58588000
O     55.96286300    32.39770700    54.43466800
H     55.31084500    32.10952700    55.09277000
C     61.12320000    32.06212600    54.53420800
O     61.78496200    31.70232800    55.54338100
O     61.54107100    32.10651300    53.35273800
C     69.887100    31.084200    49.823700
O     71.070925    31.145976    49.427163
O     69.175816    30.056817    49.856259
H     69.429121    32.020050    50.176461
C     62.840200    31.665800    65.710800
N     62.990777    32.051020    64.446746
H     62.680260    32.713522    65.143000
H     63.186946    31.095982    64.710413
N     62.431301    32.538204    66.627649
H     62.627470    31.583166    66.891316
H     62.545649    32.830740    65.667728
N     63.098521    30.408176    66.058005
H     63.212870    30.700711    65.098084
H     62.788004    31.070678    66.754259
C     48.439800    39.268000    57.961200
N     48.590377    39.653220    56.697146
H     48.279860    40.315722    57.393400
H     48.786546    38.698182    56.960813
N     48.030901    40.140404    58.878049
H     48.227070    39.185366    59.141716
H     48.145249    40.432940    57.918128
N     48.698121    38.010376    58.308405
H     48.812470    38.302911    57.348484
H     48.387604    38.672878    59.004659
C     52.113800    31.527900    64.234700
N     52.264377    31.913120    62.970646
H     51.953860    32.575622    63.666900
H     52.460546    30.958082    63.234313
N     51.704901    32.400304    65.151549
H     51.901070    31.445266    65.415216
H     51.819249    32.692840    64.191628
N     52.372121    30.270276    64.581905
H     52.486470    30.562811    63.621984
H     52.061604    30.932778    65.278159
C     57.888400    29.318500    65.859700
N     58.038977    29.703720    64.595646
H     57.728460    30.366222    65.291900
H     58.235146    28.748682    64.859313
N     57.479501    30.190904    66.776549
H     57.675670    29.235866    67.040216
H     57.593849    30.483440    65.816628
N     58.146721    28.060876    66.206905
H     58.261070    28.353411    65.246984
H     57.836204    28.723378    66.903159
C     58.716500    34.443000    44.384300
O     59.900325    34.504776    43.987763
O     58.005216    33.415617    44.416859
H     58.258521    35.378850    44.737061
C     67.667700    26.143200    50.184700
O     68.851525    26.204976    49.788163
O     66.956416    25.115817    50.217259
H     67.209721    27.079050    50.537461
C     63.392500    38.570700    46.629300
O     64.576325    38.632476    46.232763
O     62.681216    37.543317    46.661859
H     62.934521    39.506550    46.982061
C     51.394000    38.884600    63.663900
N     51.544577    39.269820    62.399846
H     51.234060    39.932322    63.096100
H     51.740746    38.314782    62.663513
N     50.985101    39.757004    64.580749
H     51.181270    38.801966    64.844416
H     51.099449    40.049540    63.620828
N     51.652321    37.626976    64.011105
H     51.766670    37.919511    63.051184
H     51.341804    38.289478    64.707359
C     69.443700    27.991700    58.818600
O     70.627525    28.053476    58.422063
O     68.732416    26.964317    58.851159
H     68.985721    28.927550    59.171361
