72
-2 1 -839.4458916429394
C       60.58970515    34.04416176    57.18320532
H       61.28153968    33.67254627    56.40476640
H       61.10604773    34.38158773    58.08823524
C       59.25465939    34.11389998    57.13861381
C       58.34155826    34.65149136    58.23655043
O       58.18967223    33.94282194    59.33640769
O       57.69166596    35.67403841    58.02232329
O       58.57216597    33.79365902    55.94892240
C       57.37850442    33.05110306    55.94525802
H       56.50336864    33.74138042    55.91484334
C       57.20796404    32.08762557    57.09519686
H       56.69539832    32.41757170    58.02689782
C       57.77551557    30.87025010    57.09132633
C       58.55730562    30.45472017    55.90681476
H       59.31603003    29.67176518    56.01731014
C       58.39705389    31.08870049    54.72785525
H       59.03287405    30.85018614    53.86693218
C       57.40503364    32.22470130    54.63873161
H       57.65479122    32.89965249    53.80770952
O       56.04923406    31.63961002    54.40818283
H       55.45886435    32.31565406    54.77757361
C       57.51257687    29.86470131    58.21542949
O       57.32551688    30.34007495    59.36895096
O       57.46033870    28.66046358    57.87964597
C       53.21740000    31.67870000    51.94570000
N       53.36797700    32.06392000    50.68164600
H       53.05746000    32.72642200    51.37790000
H       53.56414600    31.10888200    50.94531300
N       52.80850100    32.55110400    52.86254900
H       53.00467000    31.59606600    53.12621600
H       52.92284900    32.84364000    51.90262800
N       53.47572100    30.42107600    52.29290500
H       53.59007000    30.71361100    51.33298400
H       53.16520400    31.08357800    52.98915900
C       64.30860000    30.09970000    52.53550000
O       65.49242500    30.16147600    52.13896300
O       63.59731600    29.07231700    52.56805900
H       63.85062100    31.03555000    52.88826100
C       64.14040000    34.07180000    56.80490000
O       65.32422500    34.13357600    56.40836300
O       63.42911600    33.04441700    56.83745900
H       63.68242100    35.00765000    57.15766100
C       55.33790000    33.73470000    59.83180000
N       55.48847700    34.11992000    58.56774600
H       55.17796000    34.78242200    59.26400000
H       55.68464600    33.16488200    58.83141300
N       54.92900100    34.60710400    60.74864900
H       55.12517000    33.65206600    61.01231600
H       55.04334900    34.89964000    59.78872800
N       55.59622100    32.47707600    60.17900500
H       55.71057000    32.76961100    59.21908400
H       55.28570400    33.13957800    60.87525900
C       59.64430000    31.49730000    60.26190000
N       59.79487700    31.88252000    58.99784600
H       59.48436000    32.54502200    59.69410000
H       59.99104600    30.92748200    59.26151300
N       59.23540100    32.36970400    61.17874900
H       59.43157000    31.41466600    61.44241600
H       59.34974900    32.66224000    60.21882800
N       59.90262100    30.23967600    60.60910500
H       60.01697000    30.53221100    59.64918400
H       59.59210400    30.90217800    61.30535900
C       56.24140000    28.33150000    54.94860000
N       56.39197700    28.71672000    53.68454600
H       56.08146000    29.37922200    54.38080000
H       56.58814600    27.76168200    53.94821300
N       55.83250100    29.20390400    55.86544900
H       56.02867000    28.24886600    56.12911600
H       55.94684900    29.49644000    54.90552800
N       56.49972100    27.07387600    55.29580500
H       56.61407000    27.36641100    54.33588400
H       56.18920400    27.73637800    55.99205900
