88
shell4p0 TS-under-field
C     60.14190600    34.25017500    56.86750500
H     60.65410400    33.35229400    57.20242100
H     60.73860600    35.07435300    56.47491200
C     58.80287300    34.45194900    57.16141800
C     58.13069700    35.79868100    56.84307300
O     58.86276300    36.77666300    56.53446600
O     56.87734100    35.82963400    56.93983700
O     58.04533200    33.51170800    57.60013500
C     57.53567900    32.20862600    56.01945400
H     56.92805500    31.57263500    56.66681400
C     58.86068700    31.87524000    55.78984900
H     59.36035100    31.12725100    56.40326400
C     59.64119800    32.67145500    54.96010600
C     58.97535300    33.57937300    54.02371700
H     59.61208400    34.05213900    53.27111900
C     57.64453400    33.77154800    54.05277400
H     57.14874400    34.42947900    53.33266900
C     56.77153500    33.13738000    55.09626400
H     56.36648800    33.96180100    55.70835200
O     55.70405500    32.44082700    54.44502300
H     55.04194600    32.20048300    55.11214300
C     61.07068900    32.21901900    54.67969600
O     61.72429900    31.71851300    55.62834500
O     61.44865900    32.31879300    53.48933100
C     56.671900    29.889500    61.582100
N     56.822477    30.274720    60.318046
H     56.511960    30.937222    61.014300
H     57.018646    29.319682    60.581713
N     56.263001    30.761904    62.498949
H     56.459170    29.806866    62.762616
H     56.377349    31.054440    61.539028
N     56.930221    28.631876    61.929305
H     57.044570    28.924411    60.969384
H     56.619704    29.294378    62.625559
C     63.416900    29.380600    48.940400
O     64.600725    29.442376    48.543863
O     62.705616    28.353217    48.972959
H     62.958921    30.316450    49.293161
C     53.612300    33.902000    61.035900
N     53.762877    34.287220    59.771846
H     53.452360    34.949722    60.468100
H     53.959046    33.332182    60.035513
N     53.203401    34.774404    61.952749
H     53.399570    33.819366    62.216416
H     53.317749    35.066940    60.992828
N     53.870621    32.644376    61.383105
H     53.984970    32.936911    60.423184
H     53.560104    33.306878    62.079359
C     62.485800    26.667500    53.237600
O     63.669625    26.729276    52.841063
O     61.774516    25.640117    53.270159
H     62.027821    27.603350    53.590361
C     58.011200    34.683700    63.296300
N     58.161777    35.068920    62.032246
H     57.851260    35.731422    62.728500
H     58.357946    34.113882    62.295913
N     57.602301    35.556104    64.213149
H     57.798470    34.601066    64.476816
H     57.716649    35.848640    63.253228
N     58.269521    33.426076    63.643505
H     58.383870    33.718611    62.683584
H     57.959004    34.088578    64.339759
C     64.448100    34.672300    49.427600
O     65.631925    34.734076    49.031063
O     63.736816    33.644917    49.460159
H     63.990121    35.608150    49.780361
C     59.295900    34.191000    47.939200
O     60.479725    34.252776    47.542663
O     58.584616    33.163617    47.971759
H     58.837921    35.126850    48.291961
C     58.262300    28.715500    50.493600
O     59.446125    28.777276    50.097063
O     57.551016    27.688117    50.526159
H     57.804321    29.651350    50.846361
C     61.375000    30.231600    61.407600
N     61.525577    30.616820    60.143546
H     61.215060    31.279322    60.839800
H     61.721746    29.661782    60.407213
N     60.966101    31.104004    62.324449
H     61.162270    30.148966    62.588116
H     61.080449    31.396540    61.364528
N     61.633321    28.973976    61.754805
H     61.747670    29.266511    60.794884
H     61.322804    29.636478    62.451059
C     66.844800    30.840600    52.521000
O     68.028625    30.902376    52.124463
O     66.133516    29.813217    52.553559
H     66.386821    31.776450    52.873761
