44
-2 1 -837.9230385036681
C       56.42802328    34.73764893    55.61610801
H       56.74828351    34.93519424    54.58994453
H       55.76794231    35.45910471    56.10104791
C       56.84122373    33.65027149    56.27934815
C       56.41511598    33.35485946    57.69758631
O       55.27908042    33.68855173    58.10596975
O       57.19172242    32.62459420    58.41119422
O       57.65855137    32.68155996    55.73317293
C       57.15932974    31.93693433    54.57866561
H       56.44951323    32.56887634    54.02596563
C       56.49596582    30.71188862    55.14064915
H       55.54442664    30.86773021    55.65769250
C       57.13536991    29.52135456    55.24112248
C       58.44111808    29.33539764    54.59557239
H       58.93630930    28.36859893    54.70835771
C       59.00507658    30.31950031    53.87161609
H       59.96348460    30.15603932    53.36881880
C       58.31815259    31.64212628    53.61690505
H       59.04434526    32.46873873    53.72688536
O       57.73011040    31.63685152    52.32506780
H       58.42310512    31.58547196    51.64949309
C       56.70378957    28.57425005    56.34127982
O       55.52873355    28.66813037    56.82425792
O       57.61102497    27.89889706    56.90192811
C       54.83730000    30.67720000    58.90640000
N       54.98787700    31.06242000    57.64234600
H       54.67736000    31.72492200    58.33860000
H       55.18404600    30.10738200    57.90601300
N       54.42840100    31.54960400    59.82324900
H       54.62457000    30.59456600    60.08691600
H       54.54274900    31.84214000    58.86332800
N       55.09562100    29.41957600    59.25360500
H       55.20997000    29.71211100    58.29368400
H       54.78510400    30.08207800    59.94985900
C       57.97140000    29.89850000    59.18150000
N       58.12197700    30.28372000    57.91744600
H       57.81146000    30.94622200    58.61370000
H       58.31814600    29.32868200    58.18111300
N       57.56250100    30.77090400    60.09834900
H       57.75867000    29.81586600    60.36201600
H       57.67684900    31.06344000    59.13842800
N       58.22972100    28.64087600    59.52870500
H       58.34407000    28.93341100    58.56878400
H       57.91920400    29.30337800    60.22495900
