100
-2 1 -841.2376646629846
C       59.51920346    35.38996678    56.62822467
H       60.12795049    35.43572481    55.72665421
H       61.14194886    35.89464978    58.42720208
C       58.84433293    35.31551905    57.63669242
C       58.08419354    35.13964544    58.85938524
O       58.19377513    34.01402413    59.47254224
O       57.30334712    36.03913895    59.25579079
O       58.31245840    32.43181864    56.06812037
C       58.83425302    32.62185957    54.95613452
H       55.59039702    32.44027881    58.49584873
C       60.15746246    32.05596837    54.59617595
H       60.68621248    31.47526668    55.35502806
C       60.66292455    32.13495318    53.33331547
C       60.02198535    32.91716102    52.29645737
H       60.46514778    33.21930231    51.28268004
C       58.63171935    33.33204575    52.63286373
H       58.08274589    33.57275551    51.69856406
C       58.11867643    33.30257589    53.87818857
H       57.08362840    33.60098178    54.09413569
O       53.62726414    32.12756866    56.84596508
H       54.23128764    32.56399336    56.22345933
C       61.87306013    31.33420757    53.18425604
O       62.86173905    31.45685842    53.92634478
O       62.25563788    30.25704379    52.68698250
C       61.34689964    37.08199944    59.61739938
N       61.49747631    37.46722232    58.35334687
H       61.18696175    38.12972430    59.04960157
H       61.69364597    36.51218327    58.61701998
N       60.93800773    37.95440562    60.53425168
H       61.13417101    36.99936605    60.79791757
H       61.05235432    38.24694319    59.57433196
N       61.60521238    35.82436933    59.96459906
H       61.71958541    36.11689781    59.00469182
H       61.29469538    36.48687386    60.66085666
C       58.88720000    30.25530000    51.89210000
O       60.07102500    30.31707600    51.49556300
O       58.17591600    29.22791700    51.92465900
H       58.42922100    31.19115000    52.24486100
C       63.81050000    29.09560000    54.34790000
O       64.99432500    29.15737600    53.95136300
O       63.09921600    28.06821700    54.38045900
H       63.35252100    30.03145000    54.70066100
C       53.21740000    31.67870000    51.94570000
N       53.36797700    32.06392000    50.68164600
H       53.05746000    32.72642200    51.37790000
H       53.56414600    31.10888200    50.94531300
N       52.80850100    32.55110400    52.86254900
H       53.00467000    31.59606600    53.12621600
H       52.92284900    32.84364000    51.90262800
N       53.47572100    30.42107600    52.29290500
H       53.59007000    30.71361100    51.33298400
H       53.16520400    31.08357800    52.98915900
C       53.85940000    36.72330000    55.35930000
N       54.00997700    37.10852000    54.09524600
H       53.69946000    37.77102200    54.79150000
H       54.20614600    36.15348200    54.35891300
N       53.45050100    37.59570400    56.27614900
H       53.64667000    36.64066600    56.53981600
H       53.56484900    37.88824000    55.31622800
N       54.11772100    35.46567600    55.70650500
H       54.23207000    35.75821100    54.74658400
H       53.80720400    36.12817800    56.40275900
C       54.66340000    29.53370000    57.72430000
N       54.81397700    29.91892000    56.46024600
H       54.50346000    30.58142200    57.15650000
H       55.01014600    28.96388200    56.72391300
N       54.25450100    30.40610400    58.64114900
H       54.45067000    29.45106600    58.90481600
H       54.36884900    30.69864000    57.68122800
N       54.92172100    28.27607600    58.07150500
H       55.03607000    28.56861100    57.11158400
H       54.61120400    28.93857800    58.76775900
C       64.47490000    32.89690000    51.58640000
O       65.65872500    32.95867600    51.18986300
O       63.76361600    31.86951700    51.61895900
H       64.01692100    33.83275000    51.93916100
C       55.33789445    33.73468764    59.83179120
N       55.48846896    34.11990762    58.56773200
H       55.17798136    34.78241883    59.26400349
H       55.68463572    33.16490570    58.83139512
N       54.92903770    34.60711791    60.74865752
H       55.12519000    33.65208940    61.01232989
H       55.04337101    34.89963551    59.78871535
N       55.59617062    32.47705634    60.17901124
H       55.71057353    32.76953709    59.21912048
H       55.28570018    33.13960281    60.87528288
C       59.64430000    31.49730000    60.26190000
N       59.79487700    31.88252000    58.99784600
H       59.48436000    32.54502200    59.69410000
H       59.99104600    30.92748200    59.26151300
N       59.23540100    32.36970400    61.17874900
H       59.43157000    31.41466600    61.44241600
H       59.34974900    32.66224000    60.21882800
N       59.90262100    30.23967600    60.60910500
H       60.01697000    30.53221100    59.64918400
H       59.59210400    30.90217800    61.30535900
C       58.91760000    34.60790000    50.09390000
O       60.10142500    34.66967600    49.69736300
O       58.20631600    33.58051700    50.12645900
H       58.45962100    35.54375000    50.44666100
