82
shell8p0 K=10 +-1 net-free proxy+8.17
C     60.11193800    34.38396900    57.21013200
H     60.60719900    33.42993900    57.38460900
H     60.72469300    35.27181800    57.05919300
C     58.78057700    34.50353200    57.15195800
C     58.09218200    35.83426100    56.89335400
O     58.81246700    36.81821800    56.57878900
O     56.83954900    35.84891700    57.00961700
O     57.93461500    33.42640300    57.34599800
C     57.67693600    32.53773200    56.20080600
H     57.01901700    31.76376900    56.62407200
C     58.98648700    31.96184000    55.79317200
H     59.46393000    31.24298300    56.46049600
C     59.68310500    32.48267100    54.76815100
C     59.06432100    33.48370900    53.89317900
H     59.70236100    33.90454400    53.11096900
C     57.78125300    33.86565900    54.03153300
H     57.33218100    34.60235400    53.35662900
C     56.88979900    33.27109300    55.08618200
H     56.34719000    34.09064800    55.58588000
O     55.96286300    32.39770700    54.43466800
H     55.31084500    32.10952700    55.09277000
C     61.12320000    32.06212600    54.53420800
O     61.78496200    31.70232800    55.54338100
O     61.54107100    32.10651300    53.35273800
C     58.059300    32.813200    67.348900
N     58.209877    33.198420    66.084846
H     57.899360    33.860922    66.781100
H     58.406046    32.243382    66.348513
N     57.650401    33.685604    68.265749
H     57.846570    32.730566    68.529416
H     57.764749    33.978140    67.305828
N     58.317621    31.555576    67.696105
H     58.431970    31.848111    66.736184
H     58.007104    32.218078    68.392359
C     68.785500    32.682100    47.206000
O     69.969325    32.743876    46.809463
O     68.074216    31.654717    47.238559
H     68.327521    33.617950    47.558761
C     70.063300    28.298500    51.493500
O     71.247125    28.360276    51.096963
O     69.352016    27.271117    51.526059
H     69.605321    29.234350    51.846261
C     62.242100    30.272400    44.038300
O     63.425925    30.334176    43.641763
O     61.530816    29.245017    44.070859
H     61.784121    31.208250    44.391061
C     55.754800    28.614000    65.502400
N     55.905377    28.999220    64.238346
H     55.594860    29.661722    64.934600
H     56.101546    28.044182    64.502013
N     55.345901    29.486404    66.419249
H     55.542070    28.531366    66.682916
H     55.460249    29.778940    65.459328
N     56.013121    27.356376    65.849605
H     56.127470    27.648911    64.889684
H     55.702604    28.018878    66.545859
C     61.922100    25.993300    46.066400
O     63.105925    26.055076    45.669863
O     61.210816    24.965917    46.098959
H     61.464121    26.929150    46.419161
C     61.220100    23.184600    50.053100
O     62.403925    23.246376    49.656563
O     60.508816    22.157217    50.085659
H     60.762121    24.120450    50.405861
C     53.478100    32.867000    66.035100
N     53.628677    33.252220    64.771046
H     53.318160    33.914722    65.467300
H     53.824846    32.297182    65.034713
N     53.069201    33.739404    66.951949
H     53.265370    32.784366    67.215616
H     53.183549    34.031940    65.992028
N     53.736421    31.609376    66.382305
H     53.850770    31.901911    65.422384
H     53.425904    32.271878    67.078559
C     65.848900    24.394800    49.804900
O     67.032725    24.456576    49.408363
O     65.137616    23.367417    49.837459
H     65.390921    25.330650    50.157661
C     66.776200    28.496400    46.270600
O     67.960025    28.558176    45.874063
O     66.064916    27.469017    46.303159
H     66.318221    29.432250    46.623361
