66
-2 1 -840.4396766560269
C       59.68221082    35.73316447    58.45139889
H       59.94023881    34.89483263    57.73388742
H       59.80960188    36.76853231    58.07967950
C       58.72602866    35.27646426    59.22022711
C       57.83713856    36.33806000    59.70599507
O       58.37336308    37.44869409    59.86491098
O       56.54330871    36.22460295    59.71253784
O       58.31194907    33.94187674    59.41309618
C       59.33572275    30.11601927    53.88707281
H       58.48171660    29.89707195    54.51986063
C       60.30245191    31.02408147    54.24881995
H       60.28661259    31.51326316    55.22097991
C       61.32419439    31.32281834    53.34152272
C       61.51281031    30.76201092    52.12154392
H       62.43924999    30.96404031    51.52728693
C       60.60663021    29.68976411    51.77714603
H       61.25140094    28.74682181    51.91634425
C       59.42900982    29.49740285    52.61095747
H       60.43467555    29.69889901    50.65136340
O       58.41887071    28.79103440    52.21157495
H       58.40744853    28.80330747    51.19963876
C       63.57351098    31.54060828    54.17745725
O       64.60111782    31.17285729    54.46923028
O       62.48680836    32.07604043    54.02100418
C       61.34690000    37.08200000    59.61740000
N       61.49747700    37.46722000    58.35334600
H       61.18696000    38.12972200    59.04960000
H       61.69364600    36.51218200    58.61701300
N       60.93800100    37.95440400    60.53424900
H       61.13417000    36.99936600    60.79791600
H       61.05234900    38.24694000    59.57432800
N       61.60522100    35.82437600    59.96460500
H       61.71957000    36.11691100    59.00468400
H       61.29470400    36.48687800    60.66085900
C       59.04380000    30.76110000    49.83820000
O       60.22762500    30.82287600    49.44166300
O       58.33251600    29.73371700    49.87075900
H       58.58582100    31.69695000    50.19096100
C       62.38720000    28.69680000    53.61720000
O       63.57102500    28.75857600    53.22066300
O       61.67591600    27.66941700    53.64975900
H       61.92922100    29.63265000    53.96996100
C       64.47490000    32.89690000    51.58640000
O       65.65872500    32.95867600    51.18986300
O       63.76361600    31.86951700    51.61895900
H       64.01692100    33.83275000    51.93916100
C       55.33790000    33.73470000    59.83180000
N       55.48847700    34.11992000    58.56774600
H       55.17796000    34.78242200    59.26400000
H       55.68464600    33.16488200    58.83141300
N       54.92900100    34.60710400    60.74864900
H       55.12517000    33.65206600    61.01231600
H       55.04334900    34.89964000    59.78872800
N       55.59622100    32.47707600    60.17900500
H       55.71057000    32.76961100    59.21908400
H       55.28570400    33.13957800    60.87525900
C       59.64430000    31.49730000    60.26190000
N       59.79487700    31.88252000    58.99784600
H       59.48436000    32.54502200    59.69410000
H       59.99104600    30.92748200    59.26151300
N       59.23540100    32.36970400    61.17874900
H       59.43157000    31.41466600    61.44241600
H       59.34974900    32.66224000    60.21882800
N       59.90262100    30.23967600    60.60910500
H       60.01697000    30.53221100    59.64918400
H       59.59210400    30.90217800    61.30535900
