70
shell13p0 TS-under-field
C     60.14190600    34.25017500    56.86750500
H     60.65410400    33.35229400    57.20242100
H     60.73860600    35.07435300    56.47491200
C     58.80287300    34.45194900    57.16141800
C     58.13069700    35.79868100    56.84307300
O     58.86276300    36.77666300    56.53446600
O     56.87734100    35.82963400    56.93983700
O     58.04533200    33.51170800    57.60013500
C     57.53567900    32.20862600    56.01945400
H     56.92805500    31.57263500    56.66681400
C     58.86068700    31.87524000    55.78984900
H     59.36035100    31.12725100    56.40326400
C     59.64119800    32.67145500    54.96010600
C     58.97535300    33.57937300    54.02371700
H     59.61208400    34.05213900    53.27111900
C     57.64453400    33.77154800    54.05277400
H     57.14874400    34.42947900    53.33266900
C     56.77153500    33.13738000    55.09626400
H     56.36648800    33.96180100    55.70835200
O     55.70405500    32.44082700    54.44502300
H     55.04194600    32.20048300    55.11214300
C     61.07068900    32.21901900    54.67969600
O     61.72429900    31.71851300    55.62834500
O     61.44865900    32.31879300    53.48933100
C     64.610200    24.440000    41.410600
O     65.794025    24.501776    41.014063
O     63.898916    23.412617    41.443159
H     64.152221    25.375850    41.763361
C     69.343600    25.659100    42.943900
O     70.527425    25.720876    42.547363
O     68.632316    24.631717    42.976459
H     68.885621    26.594950    43.296661
C     72.872500    25.314900    47.331900
O     74.056325    25.376676    46.935363
O     72.161216    24.287517    47.364459
H     72.414521    26.250750    47.684661
C     71.592600    30.793000    42.958600
O     72.776425    30.854776    42.562063
O     70.881316    29.765617    42.991159
H     71.134621    31.728850    43.311361
C     69.019000    21.220600    47.322100
O     70.202825    21.282376    46.925563
O     68.307716    20.193217    47.354659
H     68.561021    22.156450    47.674861
C     66.300200    28.865500    40.025200
O     67.484025    28.927276    39.628663
O     65.588916    27.838117    40.057759
H     65.842221    29.801350    40.377961
C     63.730900    20.001000    45.640500
O     64.914725    20.062776    45.243963
O     63.019616    18.973617    45.673059
H     63.272921    20.936850    45.993261
C     54.758500    30.773500    71.646100
N     54.909077    31.158720    70.382046
H     54.598560    31.821222    71.078300
H     55.105246    30.203682    70.645713
N     54.349601    31.645904    72.562949
H     54.545770    30.690866    72.826616
H     54.463949    31.938440    71.603028
N     55.016821    29.515876    71.993305
H     55.131170    29.808411    71.033384
H     54.706304    30.178378    72.689559
C     60.794900    27.085200    39.750600
O     61.978725    27.146976    39.354063
O     60.083616    26.057817    39.783159
H     60.336921    28.021050    40.103361
C     74.496100    30.580200    46.978500
O     75.679925    30.641976    46.581963
O     73.784816    29.552817    47.011059
H     74.038121    31.516050    47.331261
