88
-2 1 -839.6264399243107
C       59.61388497    32.98778396    65.39149018
H       59.69931610    33.92049745    64.82723354
H       58.86765724    32.90851878    66.18347006
C       60.41373342    31.95014439    65.11761598
C       60.35144900    30.61727213    65.89490728
O       59.42796064    30.49014008    66.71265786
O       61.26174215    29.76392998    65.64631884
O       61.38150625    32.06398502    64.12333639
C       60.85137582    31.93048323    62.74750497
H       60.07164495    32.69797379    62.63629624
C       60.30084725    30.54818849    62.60081356
H       59.33318985    30.32535092    63.05590224
C       61.06000928    29.55926629    62.08841824
C       62.34196060    29.84399494    61.43308514
H       62.91409416    29.00804802    61.02293434
C       62.75524565    31.10982157    61.24125037
H       63.65788312    31.32546137    60.65879906
C       61.95523002    32.28865500    61.73786743
H       62.64248350    32.99227747    62.25639254
O       61.28475495    32.93543260    60.67307489
H       61.83939665    32.91998945    59.87549800
C       60.66120219    28.13174291    62.31326213
O       59.45657753    27.78215198    62.13138921
O       61.56534634    27.36665928    62.74780615
C       55.34650000    24.98890000    48.81730000
O       56.53032500    25.05067600    48.42076300
O       54.63521600    23.96151700    48.84985900
H       54.88852100    25.92475000    49.17006100
C       49.61040000    27.39540000    60.43760000
N       49.76097700    27.78062000    59.17354600
H       49.45046000    28.44312200    59.86980000
H       49.95714600    26.82558200    59.43721300
N       49.20150100    28.26780400    61.35444900
H       49.39767000    27.31276600    61.61811600
H       49.31584900    28.56034000    60.39452800
N       49.86872100    26.13777600    60.78480500
H       49.98307000    26.43031100    59.82488400
H       49.55820400    26.80027800    61.48105900
C       63.91120000    25.57240000    47.14740000
O       65.09502500    25.63417600    46.75086300
O       63.19991600    24.54501700    47.17995900
H       63.45322100    26.50825000    47.50016100
C       58.03000000    43.79960000    62.70240000
N       58.18057700    44.18482000    61.43834600
H       57.87006000    44.84732200    62.13460000
H       58.37674600    43.22978200    61.70201300
N       57.62110100    44.67200400    63.61924900
H       57.81727000    43.71696600    63.88291600
H       57.73544900    44.96454000    62.65932800
N       58.28832100    42.54197600    63.04960500
H       58.40267000    42.83451100    62.08968400
H       57.97780400    43.20447800    63.74585900
C       62.44200000    33.85930000    44.24510000
O       63.62582500    33.92107600    43.84856300
O       61.73071600    32.83191700    44.27765900
H       61.98402100    34.79515000    44.59786100
C       69.88190000    27.17100000    54.68990000
O       71.06572500    27.23277600    54.29336300
O       69.17061600    26.14361700    54.72245900
H       69.42392100    28.10685000    55.04266100
C       70.79600000    30.77500000    57.72660000
O       71.97982500    30.83677600    57.33006300
O       70.08471600    29.74761700    57.75915900
H       70.33802100    31.71085000    58.07936100
C       66.18770000    39.14860000    49.27980000
O       67.37152500    39.21037600    48.88326300
O       65.47641600    38.12121700    49.31235900
H       65.72972100    40.08445000    49.63256100
C       59.94930000    24.87230000    62.84400000
N       60.09987700    25.25752000    61.57994600
H       59.78936000    25.92002200    62.27620000
H       60.29604600    24.30248200    61.84361300
N       59.54040100    25.74470400    63.76084900
H       59.73657000    24.78966600    64.02451600
H       59.65474900    26.03724000    62.80092800
N       60.20762100    23.61467600    63.19120500
H       60.32197000    23.90721100    62.23128400
H       59.89710400    24.27717800    63.88745900
C       63.78850000    30.56530000    65.29940000
N       63.93907700    30.95052000    64.03534600
H       63.62856000    31.61302200    64.73160000
H       64.13524600    29.99548200    64.29901300
N       63.37960100    31.43770400    66.21624900
H       63.57577000    30.48266600    66.47991600
H       63.49394900    31.73024000    65.25632800
N       64.04682100    29.30767600    65.64660500
H       64.16117000    29.60021100    64.68668400
H       63.73630400    29.97017800    66.34285900
