76
-2 1 -837.3051855829259
C       51.90116003    36.92600738    67.14765444
H       52.19744497    37.97664778    67.03449037
H       51.13291959    36.66182243    67.87771926
C       52.41439276    35.98634291    66.34005698
C       52.00810398    34.51742600    66.39564362
O       52.07162759    33.96432133    67.55524344
O       51.71174313    33.94616564    65.34665422
O       53.31871262    36.34432605    65.37723024
C       54.36110296    35.39803586    65.09441492
H       53.92125717    34.54019023    64.55584819
C       54.97170174    34.87872494    66.36294846
H       54.32831521    34.28563540    67.01745588
C       56.25939188    35.05572432    66.70149728
C       57.14258002    35.86452508    65.85427034
H       58.15811646    36.05396331    66.20442738
C       56.71672648    36.33177396    64.66734761
H       57.38821620    36.91553318    64.03105893
C       55.34699318    36.04497654    64.10275008
H       54.88387436    36.99742306    63.78673709
O       55.46629361    35.14516331    63.01089100
H       55.74502781    35.62748498    62.21787284
C       56.81659106    34.39934394    67.92520495
O       56.25514061    33.34779912    68.42524526
O       57.88448645    34.86417246    68.40329342
C       63.63570000    28.44100000    42.63540000
O       64.81952500    28.50277600    42.23886300
O       62.92441600    27.41361700    42.66795900
H       63.17772100    29.37685000    42.98816100
C       68.77190000    32.89690000    44.42070000
O       69.95572500    32.95867600    44.02416300
O       68.06061600    31.86951700    44.45325900
H       68.31392100    33.83275000    44.77346100
C       65.46530000    24.84520000    45.31740000
O       66.64912500    24.90697600    44.92086300
O       64.75401600    23.81781700    45.34995900
H       65.00732100    25.78105000    45.67016100
C       67.81590000    23.37590000    49.21930000
O       68.99972500    23.43767600    48.82276300
O       67.10461600    22.34851700    49.25185900
H       67.35792100    24.31175000    49.57206100
C       72.02780000    27.91670000    51.08500000
O       73.21162500    27.97847600    50.68846300
O       71.31651600    26.88931700    51.11755900
H       71.56982100    28.85255000    51.43776100
C       61.65220000    21.86600000    48.07940000
O       62.83602500    21.92777600    47.68286300
O       60.94091600    20.83861700    48.11195900
H       61.19422100    22.80185000    48.43216100
C       58.84170000    32.14180000    69.27480000
N       58.99227700    32.52702000    68.01074600
H       58.68176000    33.18952200    68.70700000
H       59.18844600    31.57198200    68.27441300
N       58.43280100    33.01420400    70.19164900
H       58.62897000    32.05916600    70.45531600
H       58.54714900    33.30674000    69.23172800
N       59.10002100    30.88417600    69.62200500
H       59.21437000    31.17671100    68.66208400
H       58.78950400    31.54667800    70.31825900
C       59.62150000    25.89480000    43.84500000
O       60.80532500    25.95657600    43.44846300
O       58.91021600    24.86741700    43.87755900
H       59.16352100    26.83065000    44.19776100
C       53.93870000    31.90150000    68.37940000
N       54.08927700    32.28672000    67.11534600
H       53.77876000    32.94922200    67.81160000
H       54.28544600    31.33168200    67.37901300
N       53.52980100    32.77390400    69.29624900
H       53.72597000    31.81886600    69.55991600
H       53.64414900    33.06644000    68.33632800
N       54.19702100    30.64387600    68.72660500
H       54.31137000    30.93641100    67.76668400
H       53.88650400    31.30637800    69.42285900
C       69.61260000    28.53040000    45.95490000
O       70.79642500    28.59217600    45.55836300
O       68.90131600    27.50301700    45.98745900
H       69.15462100    29.46625000    46.30766100
