76
shell10p0 TS-under-field
C     60.14190600    34.25017500    56.86750500
H     60.65410400    33.35229400    57.20242100
H     60.73860600    35.07435300    56.47491200
C     58.80287300    34.45194900    57.16141800
C     58.13069700    35.79868100    56.84307300
O     58.86276300    36.77666300    56.53446600
O     56.87734100    35.82963400    56.93983700
O     58.04533200    33.51170800    57.60013500
C     57.53567900    32.20862600    56.01945400
H     56.92805500    31.57263500    56.66681400
C     58.86068700    31.87524000    55.78984900
H     59.36035100    31.12725100    56.40326400
C     59.64119800    32.67145500    54.96010600
C     58.97535300    33.57937300    54.02371700
H     59.61208400    34.05213900    53.27111900
C     57.64453400    33.77154800    54.05277400
H     57.14874400    34.42947900    53.33266900
C     56.77153500    33.13738000    55.09626400
H     56.36648800    33.96180100    55.70835200
O     55.70405500    32.44082700    54.44502300
H     55.04194600    32.20048300    55.11214300
C     61.07068900    32.21901900    54.67969600
O     61.72429900    31.71851300    55.62834500
O     61.44865900    32.31879300    53.48933100
C     63.635700    28.441000    42.635400
O     64.819525    28.502776    42.238863
O     62.924416    27.413617    42.667959
H     63.177721    29.376850    42.988161
C     68.771900    32.896900    44.420700
O     69.955725    32.958676    44.024163
O     68.060616    31.869517    44.453259
H     68.313921    33.832750    44.773461
C     65.465300    24.845200    45.317400
O     66.649125    24.906976    44.920863
O     64.754016    23.817817    45.349959
H     65.007321    25.781050    45.670161
C     67.815900    23.375900    49.219300
O     68.999725    23.437676    48.822763
O     67.104616    22.348517    49.251859
H     67.357921    24.311750    49.572061
C     72.027800    27.916700    51.085000
O     73.211625    27.978476    50.688463
O     71.316516    26.889317    51.117559
H     71.569821    28.852550    51.437761
C     61.652200    21.866000    48.079400
O     62.836025    21.927776    47.682863
O     60.940916    20.838617    48.111959
H     61.194221    22.801850    48.432161
C     58.841700    32.141800    69.274800
N     58.992277    32.527020    68.010746
H     58.681760    33.189522    68.707000
H     59.188446    31.571982    68.274413
N     58.432801    33.014204    70.191649
H     58.628970    32.059166    70.455316
H     58.547149    33.306740    69.231728
N     59.100021    30.884176    69.622005
H     59.214370    31.176711    68.662084
H     58.789504    31.546678    70.318259
C     59.621500    25.894800    43.845000
O     60.805325    25.956576    43.448463
O     58.910216    24.867417    43.877559
H     59.163521    26.830650    44.197761
C     53.938700    31.901500    68.379400
N     54.089277    32.286720    67.115346
H     53.778760    32.949222    67.811600
H     54.285446    31.331682    67.379013
N     53.529801    32.773904    69.296249
H     53.725970    31.818866    69.559916
H     53.644149    33.066440    68.336328
N     54.197021    30.643876    68.726605
H     54.311370    30.936411    67.766684
H     53.886504    31.306378    69.422859
C     69.612600    28.530400    45.954900
O     70.796425    28.592176    45.558363
O     68.901316    27.503017    45.987459
H     69.154621    29.466250    46.307661
