82
-2 1 -838.466877408276
C       56.76548977    34.79553286    65.19069801
H       56.72996914    35.41688746    64.29167351
H       56.98483588    35.26160401    66.15370286
C       56.52480369    33.47612211    65.13186761
C       56.50334370    32.63406650    66.39815246
O       57.10014034    33.04158390    67.42727243
O       55.79082504    31.56125529    66.37578754
O       56.13824039    32.87426904    63.97330825
C       57.14875255    32.12408737    63.19980453
H       56.55302811    31.43065800    62.59123584
C       58.02061478    31.42095957    64.18161735
H       57.60405927    30.56360278    64.70054145
C       59.19613978    31.93674580    64.59612053
C       59.79558659    33.06461246    63.87861590
H       60.75951453    33.43892346    64.22570033
C       59.19372504    33.58949905    62.79246149
H       59.67222631    34.39484731    62.22617011
C       57.92913153    33.00032670    62.20776262
H       57.25575517    33.80327644    61.85199695
O       58.26264745    32.09312373    61.17856695
H       58.73714118    32.53669184    60.45469948
C       59.80691745    31.46966393    65.90049005
O       59.14801339    30.71584449    66.68417968
O       60.89985259    31.99863737    66.24149957
C       68.96440000    25.16500000    50.64320000
O       70.14822500    25.22677600    50.24666300
O       68.25311600    24.13761700    50.67575900
H       68.50642100    26.10085000    50.99596100
C       66.24830000    34.56550000    44.27450000
O       67.43212500    34.62727600    43.87796300
O       65.53701600    33.53811700    44.30705900
H       65.79032100    35.50135000    44.62726100
C       65.76330000    25.11950000    46.72000000
O       66.94712500    25.18127600    46.32346300
O       65.05201600    24.09211700    46.75255900
H       65.30532100    26.05535000    47.07276100
C       52.95920000    32.24970000    66.81530000
N       53.10977700    32.63492000    65.55124600
H       52.79926000    33.29742200    66.24750000
H       53.30594600    31.67988200    65.81491300
N       52.55030100    33.12210400    67.73214900
H       52.74647000    32.16706600    67.99581600
H       52.66464900    33.41464000    66.77222800
N       53.21752100    30.99207600    67.16250500
H       53.33187000    31.28461100    66.20258400
H       52.90700400    31.65457800    67.85875900
C       70.97840000    32.59280000    48.73360000
O       72.16222500    32.65457600    48.33706300
O       70.26711600    31.56541700    48.76615900
H       70.52042100    33.52865000    49.08636100
C       63.34740000    22.15990000    50.44680000
O       64.53122500    22.22167600    50.05026300
O       62.63611600    21.13251700    50.47935900
H       62.88942100    23.09575000    50.79956100
C       60.88350000    24.59790000    46.01720000
O       62.06732500    24.65967600    45.62066300
O       60.17221600    23.57051700    46.04975900
H       60.42552100    25.53375000    46.36996100
C       57.13990000    28.72400000    67.06860000
N       57.29047700    29.10922000    65.80454600
H       56.97996000    29.77172200    66.50080000
H       57.48664600    28.15418200    66.06821300
N       56.73100100    29.59640400    67.98544900
H       56.92717000    28.64136600    68.24911600
H       56.84534900    29.88894000    67.02552800
N       57.39822100    27.46637600    67.41580500
H       57.51257000    27.75891100    66.45588400
H       57.08770400    28.12887800    68.11205900
C       64.80030000    29.74260000    43.63640000
O       65.98412500    29.80437600    43.23986300
O       64.08901600    28.71521700    43.66895900
H       64.34232100    30.67845000    43.98916100
C       59.73970000    33.90270000    68.29370000
N       59.89027700    34.28792000    67.02964600
H       59.57976000    34.95042200    67.72590000
H       60.08644600    33.33288200    67.29331300
N       59.33080100    34.77510400    69.21054900
H       59.52697000    33.82006600    69.47421600
H       59.44514900    35.06764000    68.25062800
N       59.99802100    32.64507600    68.64090500
H       60.11237000    32.93761100    67.68098400
H       59.68750400    33.30757800    69.33715900
