88
shell7p2 TS-under-field
C     60.14190600    34.25017500    56.86750500
H     60.65410400    33.35229400    57.20242100
H     60.73860600    35.07435300    56.47491200
C     58.80287300    34.45194900    57.16141800
C     58.13069700    35.79868100    56.84307300
O     58.86276300    36.77666300    56.53446600
O     56.87734100    35.82963400    56.93983700
O     58.04533200    33.51170800    57.60013500
C     57.53567900    32.20862600    56.01945400
H     56.92805500    31.57263500    56.66681400
C     58.86068700    31.87524000    55.78984900
H     59.36035100    31.12725100    56.40326400
C     59.64119800    32.67145500    54.96010600
C     58.97535300    33.57937300    54.02371700
H     59.61208400    34.05213900    53.27111900
C     57.64453400    33.77154800    54.05277400
H     57.14874400    34.42947900    53.33266900
C     56.77153500    33.13738000    55.09626400
H     56.36648800    33.96180100    55.70835200
O     55.70405500    32.44082700    54.44502300
H     55.04194600    32.20048300    55.11214300
C     61.07068900    32.21901900    54.67969600
O     61.72429900    31.71851300    55.62834500
O     61.44865900    32.31879300    53.48933100
C     59.054100    27.901800    46.132800
O     60.237925    27.963576    45.736263
O     58.342816    26.874417    46.165359
H     58.596121    28.837650    46.485561
C     61.769400    34.593300    65.949300
N     61.919977    34.978520    64.685246
H     61.609460    35.641022    65.381500
H     62.116146    34.023482    64.948913
N     61.360501    35.465704    66.866149
H     61.556670    34.510666    67.129816
H     61.474849    35.758240    65.906228
N     62.027721    33.335676    66.296505
H     62.142070    33.628211    65.336584
H     61.717204    33.998178    66.992759
C     62.112100    23.466400    52.344600
O     63.295925    23.528176    51.948063
O     61.400816    22.439017    52.377159
H     61.654121    24.402250    52.697361
C     59.927600    28.626100    64.774800
N     60.078177    29.011320    63.510746
H     59.767660    29.673822    64.207000
H     60.274346    28.056282    63.774413
N     59.518701    29.498504    65.691649
H     59.714870    28.543466    65.955316
H     59.633049    29.791040    64.731728
N     60.185921    27.368476    65.122005
H     60.300270    27.661011    64.162084
H     59.875404    28.030978    65.818259
C     68.777100    31.784800    48.501700
O     69.960925    31.846576    48.105163
O     68.065816    30.757417    48.534259
H     68.319121    32.720650    48.854461
C     49.491300    32.887800    61.375200
N     49.641877    33.273020    60.111146
H     49.331360    33.935522    60.807400
H     49.838046    32.317982    60.374813
N     49.082401    33.760204    62.292049
H     49.278570    32.805166    62.555716
H     49.196749    34.052740    61.332128
N     49.749621    31.630176    61.722405
H     49.863970    31.922711    60.762484
H     49.439104    32.292678    62.418659
C     66.312300    25.921900    49.482300
O     67.496125    25.983676    49.085763
O     65.601016    24.894517    49.514859
H     65.854321    26.857750    49.835061
C     69.904500    28.819400    54.218700
O     71.088325    28.881176    53.822163
O     69.193216    27.792017    54.251259
H     69.446521    29.755250    54.571461
C     62.707200    30.904700    44.797400
O     63.891025    30.966476    44.400863
O     61.995916    29.877317    44.829959
H     62.249221    31.840550    45.150161
C     54.010200    30.153000    64.577900
N     54.160777    30.538220    63.313846
H     53.850260    31.200722    64.010100
H     54.356946    29.583182    63.577513
N     53.601301    31.025404    65.494749
H     53.797470    30.070366    65.758416
H     53.715649    31.317940    64.534828
N     54.268521    28.895376    64.925105
H     54.382870    29.187911    63.965184
H     53.958004    29.557878    65.621359
