88
shell5p0 K=10 +-1 net-free proxy+1.66
C     60.11193800    34.38396900    57.21013200
H     60.60719900    33.42993900    57.38460900
H     60.72469300    35.27181800    57.05919300
C     58.78057700    34.50353200    57.15195800
C     58.09218200    35.83426100    56.89335400
O     58.81246700    36.81821800    56.57878900
O     56.83954900    35.84891700    57.00961700
O     57.93461500    33.42640300    57.34599800
C     57.67693600    32.53773200    56.20080600
H     57.01901700    31.76376900    56.62407200
C     58.98648700    31.96184000    55.79317200
H     59.46393000    31.24298300    56.46049600
C     59.68310500    32.48267100    54.76815100
C     59.06432100    33.48370900    53.89317900
H     59.70236100    33.90454400    53.11096900
C     57.78125300    33.86565900    54.03153300
H     57.33218100    34.60235400    53.35662900
C     56.88979900    33.27109300    55.08618200
H     56.34719000    34.09064800    55.58588000
O     55.96286300    32.39770700    54.43466800
H     55.31084500    32.10952700    55.09277000
C     61.12320000    32.06212600    54.53420800
O     61.78496200    31.70232800    55.54338100
O     61.54107100    32.10651300    53.35273800
C     60.131500    27.301700    49.179300
O     61.315325    27.363476    48.782763
O     59.420216    26.274317    49.211859
H     59.673521    28.237550    49.532061
C     66.275900    27.702200    52.549900
O     67.459725    27.763976    52.153363
O     65.564616    26.674817    52.582459
H     65.817921    28.638050    52.902661
C     59.669700    36.294600    63.696900
N     59.820277    36.679820    62.432846
H     59.509760    37.342322    63.129100
H     60.016446    35.724782    62.696513
N     59.260801    37.167004    64.613749
H     59.456970    36.211966    64.877416
H     59.375149    37.459540    63.653828
N     59.928021    35.036976    64.044105
H     60.042370    35.329511    63.084184
H     59.617504    35.699478    64.740359
C     59.295400    32.044700    47.201000
O     60.479225    32.106476    46.804463
O     58.584116    31.017317    47.233559
H     58.837421    32.980550    47.553761
C     60.633200    25.400400    54.041700
O     61.817025    25.462176    53.645163
O     59.921916    24.373017    54.074259
H     60.175221    26.336250    54.394461
C     53.868600    29.400900    61.599100
N     54.019177    29.786120    60.335046
H     53.708660    30.448622    61.031300
H     54.215346    28.831082    60.598713
N     53.459701    30.273304    62.515949
H     53.655870    29.318266    62.779616
H     53.574049    30.565840    61.556028
N     54.126921    28.143276    61.946305
H     54.241270    28.435811    60.986384
H     53.816404    28.805778    62.642559
C     54.489600    34.818000    63.056600
N     54.640177    35.203220    61.792546
H     54.329660    35.865722    62.488800
H     54.836346    34.248182    62.056213
N     54.080701    35.690404    63.973449
H     54.276870    34.735366    64.237116
H     54.195049    35.982940    63.013528
N     54.747921    33.560376    63.403805
H     54.862270    33.852911    62.443884
H     54.437404    34.222878    64.100059
C     66.798300    33.281700    49.685300
O     67.982125    33.343476    49.288763
O     66.087016    32.254317    49.717859
H     66.340321    34.217550    50.038061
C     64.003800    29.655200    47.837900
O     65.187625    29.716976    47.441363
O     63.292516    28.627817    47.870459
H     63.545821    30.591050    48.190661
C     58.189000    31.084800    63.842500
N     58.339577    31.470020    62.578446
H     58.029060    32.132522    63.274700
H     58.535746    30.514982    62.842113
N     57.780101    31.957204    64.759349
H     57.976270    31.002166    65.023016
H     57.894449    32.249740    63.799428
N     58.447321    29.827176    64.189705
H     58.561670    30.119711    63.229784
H     58.136804    30.489678    64.885959
