24
-2 1 -836.373857087132
C       60.03157544    34.63580673    57.34477151
H       60.59613191    33.71211307    57.48914634
H       60.55784103    35.58831634    57.27516525
C       58.69459271    34.63374066    57.24120991
C       57.88078666    35.94159799    57.05961548
O       58.54813705    37.00157023    57.04325165
O       56.63489263    35.82043465    56.95302574
O       57.97318306    33.46580613    57.38085533
C       57.79909650    32.60034936    56.23417011
H       57.13815438    31.80861416    56.62593387
C       59.09888667    31.98806392    55.80010031
H       59.58564067    31.26167049    56.45665471
C       59.72428777    32.35073194    54.66168809
C       59.11076226    33.35570545    53.78735669
H       59.72969515    33.70685311    52.95870198
C       57.86540952    33.82046014    53.99343206
H       57.42273140    34.56973813    53.32874113
C       57.00126876    33.29019538    55.10100554
H       56.46130027    34.12417127    55.58146756
O       56.07371001    32.36560722    54.50393490
H       55.37482378    32.21674389    55.15724522
C       61.09394344    31.75392380    54.27101868
O       61.56698425    30.87761479    55.03366522
O       61.60890568    32.21243120    53.22032692
