88
-2 1 -840.7540831083554
C       55.31585733    32.25574051    59.48471296
H       54.98581887    31.46214678    58.78047629
H       55.93921394    32.92938951    58.86408527
C       58.45927029    32.26013458    61.47478165
C       55.47486651    33.79454592    63.77669673
O       55.59504265    34.49880964    62.66322543
O       54.33872219    33.22812854    63.94614510
O       59.51474344    32.44173370    60.71697848
C       61.47571862    30.46342675    50.65761741
H       60.48666590    30.32925279    50.12864806
C       62.34743503    31.56074384    50.63878705
H       62.63486727    32.34734412    49.80551469
C       63.29403356    31.70912146    51.79014677
C       63.96968640    30.43585275    51.56424780
H       65.07933722    30.34605811    51.25274427
C       63.32828062    29.24369006    51.84321281
H       63.80737530    28.30947737    52.32675324
C       61.95495195    29.18470335    51.30490323
H       64.18566836    27.96232611    48.77234972
O       61.45114705    28.06287225    51.23768048
H       60.63386696    27.95770805    50.61225712
C       63.18511202    32.51488845    53.01773041
O       62.76811393    32.80419251    54.09957254
O       64.02418729    32.92585926    52.11298472
C       56.67190000    29.88950000    61.58210000
N       56.82247700    30.27472000    60.31804600
H       56.51196000    30.93722200    61.01430000
H       57.01864600    29.31968200    60.58171300
N       56.26300100    30.76190400    62.49894900
H       56.45917000    29.80686600    62.76261600
H       56.37734900    31.05444000    61.53902800
N       56.93022100    28.63187600    61.92930500
H       57.04457000    28.92441100    60.96938400
H       56.61970400    29.29437800    62.62555900
C       63.41684929    29.38068525    48.94041127
O       64.60073619    29.44236923    48.54390155
O       62.70561211    28.35321297    48.97300260
H       62.95892144    30.31645346    49.29312674
C       53.61230000    33.90200000    61.03590000
N       53.76287700    34.28722000    59.77184600
H       53.45236000    34.94972200    60.46810000
H       53.95904600    33.33218200    60.03551300
N       53.20340100    34.77440400    61.95274900
H       53.39957000    33.81936600    62.21641600
H       53.31774900    35.06694000    60.99282800
N       53.87062100    32.64437600    61.38310500
H       53.98497000    32.93691100    60.42318400
H       53.56010400    33.30687800    62.07935900
C       62.48580000    26.66750000    53.23760000
O       63.66962500    26.72927600    52.84106300
O       61.77451600    25.64011700    53.27015900
H       62.02782100    27.60335000    53.59036100
C       58.01120000    34.68370000    63.29630000
N       58.16177700    35.06892000    62.03224600
H       57.85126000    35.73142200    62.72850000
H       58.35794600    34.11388200    62.29591300
N       57.60230100    35.55610400    64.21314900
H       57.79847000    34.60106600    64.47681600
H       57.71664900    35.84864000    63.25322800
N       58.26952100    33.42607600    63.64350500
H       58.38387000    33.71861100    62.68358400
H       57.95900400    34.08857800    64.33975900
C       64.44810000    34.67230000    49.42760000
O       65.63192500    34.73407600    49.03106300
O       63.73681600    33.64491700    49.46015900
H       63.99012100    35.60815000    49.78036100
C       59.29590000    34.19100000    47.93920000
O       60.47972500    34.25277600    47.54266300
O       58.58461600    33.16361700    47.97175900
H       58.83792100    35.12685000    48.29196100
C       58.26230000    28.71550000    50.49360000
O       59.44612500    28.77727600    50.09706300
O       57.55101600    27.68811700    50.52615900
H       57.80432100    29.65135000    50.84636100
C       61.37500000    30.23160000    61.40760000
N       61.52557700    30.61682000    60.14354600
H       61.21506000    31.27932200    60.83980000
H       61.72174600    29.66178200    60.40721300
N       60.96610100    31.10400400    62.32444900
H       61.16227000    30.14896600    62.58811600
H       61.08044900    31.39654000    61.36452800
N       61.63332100    28.97397600    61.75480500
H       61.74767000    29.26651100    60.79488400
H       61.32280400    29.63647800    62.45105900
C       66.84480000    30.84060000    52.52100000
O       68.02862500    30.90237600    52.12446300
O       66.13351600    29.81321700    52.55355900
H       66.38682100    31.77645000    52.87376100
