100
shell7p3 TS-under-field
C     60.14190600    34.25017500    56.86750500
H     60.65410400    33.35229400    57.20242100
H     60.73860600    35.07435300    56.47491200
C     58.80287300    34.45194900    57.16141800
C     58.13069700    35.79868100    56.84307300
O     58.86276300    36.77666300    56.53446600
O     56.87734100    35.82963400    56.93983700
O     58.04533200    33.51170800    57.60013500
C     57.53567900    32.20862600    56.01945400
H     56.92805500    31.57263500    56.66681400
C     58.86068700    31.87524000    55.78984900
H     59.36035100    31.12725100    56.40326400
C     59.64119800    32.67145500    54.96010600
C     58.97535300    33.57937300    54.02371700
H     59.61208400    34.05213900    53.27111900
C     57.64453400    33.77154800    54.05277400
H     57.14874400    34.42947900    53.33266900
C     56.77153500    33.13738000    55.09626400
H     56.36648800    33.96180100    55.70835200
O     55.70405500    32.44082700    54.44502300
H     55.04194600    32.20048300    55.11214300
C     61.07068900    32.21901900    54.67969600
O     61.72429900    31.71851300    55.62834500
O     61.44865900    32.31879300    53.48933100
C     51.078300    35.229800    63.656600
N     51.228877    35.615020    62.392546
H     50.918360    36.277522    63.088800
H     51.425046    34.659982    62.656213
N     50.669401    36.102204    64.573449
H     50.865570    35.147166    64.837116
H     50.783749    36.394740    63.613528
N     51.336621    33.972176    64.003805
H     51.450970    34.264711    63.043884
H     51.026104    34.634678    64.700059
C     64.077400    35.286900    45.528500
O     65.261225    35.348676    45.131963
O     63.366116    34.259517    45.561059
H     63.619421    36.222750    45.881261
C     66.292800    24.233600    56.827800
O     67.476625    24.295376    56.431263
O     65.581516    23.206217    56.860359
H     65.834821    25.169450    57.180561
C     56.259300    31.745700    66.227200
N     56.409877    32.130920    64.963146
H     56.099360    32.793422    65.659400
H     56.606046    31.175882    65.226813
N     55.850401    32.618104    67.144049
H     56.046570    31.663066    67.407716
H     55.964749    32.910640    66.184128
N     56.517621    30.488076    66.574405
H     56.631970    30.780611    65.614484
H     56.207104    31.150578    67.270659
C     54.977300    24.021000    60.334400
N     55.127877    24.406220    59.070346
H     54.817360    25.068722    59.766600
H     55.324046    23.451182    59.334013
N     54.568401    24.893404    61.251249
H     54.764570    23.938366    61.514916
H     54.682749    25.185940    60.291328
N     55.235621    22.763376    60.681605
H     55.349970    23.055911    59.721684
H     54.925104    23.425878    61.377859
C     69.250100    33.191200    49.208800
O     70.433925    33.252976    48.812263
O     68.538816    32.163817    49.241359
H     68.792121    34.127050    49.561561
C     63.858000    34.466600    65.391100
N     64.008577    34.851820    64.127046
H     63.698060    35.514322    64.823300
H     64.204746    33.896782    64.390713
N     63.449101    35.339004    66.307949
H     63.645270    34.383966    66.571616
H     63.563449    35.631540    65.348028
N     64.116321    33.208976    65.738305
H     64.230670    33.501511    64.778384
H     63.805804    33.871478    66.434559
C     62.482300    39.901000    63.992400
N     62.632877    40.286220    62.728346
H     62.322360    40.948722    63.424600
H     62.829046    39.331182    62.992013
N     62.073401    40.773404    64.909249
H     62.269570    39.818366    65.172916
H     62.187749    41.065940    63.949328
N     62.740621    38.643376    64.339605
H     62.854970    38.935911    63.379684
H     62.430104    39.305878    65.035859
C     56.129800    40.369600    64.547100
N     56.280377    40.754820    63.283046
H     55.969860    41.417322    63.979300
H     56.476546    39.799782    63.546713
N     55.720901    41.242004    65.463949
H     55.917070    40.286966    65.727616
H     55.835249    41.534540    64.504028
N     56.388121    39.111976    64.894305
H     56.502470    39.404511    63.934384
H     56.077604    39.774478    65.590559
C     58.075100    26.940600    47.101600
O     59.258925    27.002376    46.705063
O     57.363816    25.913217    47.134159
H     57.617121    27.876450    47.454361
