17028
candidate grid (LJ-min standoff to OUTER=9.0 A)
X 58.3108 22.3430 56.1110
X 58.3108 22.3430 56.8110
X 59.0108 22.3430 55.4110
X 59.0108 22.3430 56.1110
X 59.0108 22.3430 56.8110
X 59.0108 22.3430 57.5110
X 59.7108 22.3430 55.4110
X 59.7108 22.3430 56.1110
X 59.7108 22.3430 56.8110
X 59.7108 22.3430 57.5110
X 60.4108 22.3430 56.1110
X 60.4108 22.3430 56.8110
X 54.8108 23.0430 56.8110
X 55.5108 23.0430 55.4110
X 55.5108 23.0430 56.1110
X 55.5108 23.0430 56.8110
X 55.5108 23.0430 57.5110
X 55.5108 23.0430 58.2110
X 56.2108 23.0430 54.7110
X 56.2108 23.0430 55.4110
X 56.2108 23.0430 56.1110
X 56.2108 23.0430 56.8110
X 56.2108 23.0430 57.5110
X 56.2108 23.0430 58.2110
X 56.9108 23.0430 54.0110
X 56.9108 23.0430 54.7110
X 56.9108 23.0430 55.4110
X 56.9108 23.0430 56.1110
X 56.9108 23.0430 56.8110
X 56.9108 23.0430 57.5110
X 56.9108 23.0430 58.2110
X 56.9108 23.0430 58.9110
X 57.6108 23.0430 53.3110
X 57.6108 23.0430 54.0110
X 57.6108 23.0430 54.7110
X 57.6108 23.0430 55.4110
X 57.6108 23.0430 56.1110
X 57.6108 23.0430 56.8110
X 57.6108 23.0430 57.5110
X 57.6108 23.0430 58.2110
X 57.6108 23.0430 58.9110
X 57.6108 23.0430 59.6110
X 58.3108 23.0430 53.3110
X 58.3108 23.0430 54.0110
X 58.3108 23.0430 54.7110
X 58.3108 23.0430 55.4110
X 58.3108 23.0430 56.1110
X 58.3108 23.0430 56.8110
X 58.3108 23.0430 57.5110
X 58.3108 23.0430 58.2110
X 58.3108 23.0430 58.9110
X 58.3108 23.0430 59.6110
X 59.0108 23.0430 53.3110
X 59.0108 23.0430 54.0110
X 59.0108 23.0430 54.7110
X 59.0108 23.0430 55.4110
X 59.0108 23.0430 56.1110
X 59.0108 23.0430 56.8110
X 59.0108 23.0430 57.5110
X 59.0108 23.0430 58.2110
X 59.0108 23.0430 58.9110
X 59.0108 23.0430 59.6110
X 59.7108 23.0430 53.3110
X 59.7108 23.0430 54.0110
X 59.7108 23.0430 54.7110
X 59.7108 23.0430 55.4110
X 59.7108 23.0430 56.1110
X 59.7108 23.0430 56.8110
X 59.7108 23.0430 57.5110
X 59.7108 23.0430 58.2110
X 59.7108 23.0430 58.9110
X 59.7108 23.0430 59.6110
X 60.4108 23.0430 53.3110
X 60.4108 23.0430 54.0110
X 60.4108 23.0430 54.7110
X 60.4108 23.0430 55.4110
X 60.4108 23.0430 56.1110
X 60.4108 23.0430 56.8110
X 60.4108 23.0430 57.5110
X 60.4108 23.0430 58.2110
X 60.4108 23.0430 58.9110
X 60.4108 23.0430 59.6110
X 61.1108 23.0430 53.3110
X 61.1108 23.0430 54.0110
X 61.1108 23.0430 54.7110
X 61.1108 23.0430 55.4110
X 61.1108 23.0430 56.1110
X 61.1108 23.0430 56.8110
X 61.1108 23.0430 57.5110
X 61.1108 23.0430 58.2110
X 61.1108 23.0430 58.9110
X 61.1108 23.0430 59.6110
X 61.8108 23.0430 53.3110
X 61.8108 23.0430 54.0110
X 61.8108 23.0430 54.7110
X 61.8108 23.0430 55.4110
X 61.8108 23.0430 56.1110
X 61.8108 23.0430 56.8110
X 61.8108 23.0430 57.5110
X 61.8108 23.0430 58.2110
X 61.8108 23.0430 58.9110
X 62.5108 23.0430 53.3110
X 62.5108 23.0430 54.0110
X 62.5108 23.0430 54.7110
X 62.5108 23.0430 55.4110
X 62.5108 23.0430 56.1110
X 62.5108 23.0430 56.8110
X 62.5108 23.0430 57.5110
X 62.5108 23.0430 58.2110
X 63.2108 23.0430 54.0110
X 63.2108 23.0430 54.7110
X 63.2108 23.0430 55.4110
X 63.2108 23.0430 56.1110
X 63.2108 23.0430 56.8110
X 63.2108 23.0430 57.5110
X 63.9108 23.0430 54.7110
X 63.9108 23.0430 55.4110
X 63.9108 23.0430 56.1110
X 52.0108 23.7430 55.4110
X 52.7108 23.7430 53.3110
X 52.7108 23.7430 54.0110
X 52.7108 23.7430 54.7110
X 52.7108 23.7430 55.4110
X 52.7108 23.7430 56.1110
X 52.7108 23.7430 56.8110
X 53.4108 23.7430 52.6110
X 53.4108 23.7430 53.3110
X 53.4108 23.7430 54.0110
X 53.4108 23.7430 54.7110
X 53.4108 23.7430 55.4110
X 53.4108 23.7430 56.1110
X 53.4108 23.7430 56.8110
X 53.4108 23.7430 57.5110
X 53.4108 23.7430 58.2110
X 54.1108 23.7430 52.6110
X 54.1108 23.7430 53.3110
X 54.1108 23.7430 54.0110
X 54.1108 23.7430 54.7110
X 54.1108 23.7430 55.4110
X 54.1108 23.7430 56.1110
X 54.1108 23.7430 56.8110
X 54.1108 23.7430 57.5110
X 54.1108 23.7430 58.2110
X 54.1108 23.7430 58.9110
X 54.8108 23.7430 51.9110
X 54.8108 23.7430 52.6110
X 54.8108 23.7430 53.3110
X 54.8108 23.7430 54.0110
X 54.8108 23.7430 54.7110
X 54.8108 23.7430 55.4110
X 54.8108 23.7430 56.1110
X 54.8108 23.7430 56.8110
X 54.8108 23.7430 57.5110
X 54.8108 23.7430 58.2110
X 54.8108 23.7430 58.9110
X 54.8108 23.7430 59.6110
X 55.5108 23.7430 51.9110
X 55.5108 23.7430 52.6110
X 55.5108 23.7430 53.3110
X 55.5108 23.7430 54.0110
X 55.5108 23.7430 54.7110
X 55.5108 23.7430 55.4110
X 55.5108 23.7430 56.1110
X 55.5108 23.7430 56.8110
X 55.5108 23.7430 57.5110
X 55.5108 23.7430 58.2110
X 55.5108 23.7430 58.9110
X 55.5108 23.7430 59.6110
X 55.5108 23.7430 60.3110
X 56.2108 23.7430 51.9110
X 56.2108 23.7430 52.6110
X 56.2108 23.7430 53.3110
X 56.2108 23.7430 54.0110
X 56.2108 23.7430 54.7110
X 56.2108 23.7430 55.4110
X 56.2108 23.7430 56.1110
X 56.2108 23.7430 56.8110
X 56.2108 23.7430 57.5110
X 56.2108 23.7430 58.2110
X 56.2108 23.7430 58.9110
X 56.2108 23.7430 59.6110
X 56.2108 23.7430 60.3110
X 56.9108 23.7430 52.6110
X 56.9108 23.7430 53.3110
X 56.9108 23.7430 54.0110
X 56.9108 23.7430 54.7110
X 56.9108 23.7430 55.4110
X 56.9108 23.7430 56.1110
X 56.9108 23.7430 56.8110
X 56.9108 23.7430 57.5110
X 56.9108 23.7430 58.2110
X 56.9108 23.7430 58.9110
X 56.9108 23.7430 59.6110
X 56.9108 23.7430 60.3110
X 57.6108 23.7430 51.9110
X 57.6108 23.7430 52.6110
X 57.6108 23.7430 53.3110
X 57.6108 23.7430 54.0110
X 57.6108 23.7430 54.7110
X 57.6108 23.7430 55.4110
X 57.6108 23.7430 56.1110
X 57.6108 23.7430 56.8110
X 57.6108 23.7430 57.5110
X 57.6108 23.7430 58.2110
X 57.6108 23.7430 58.9110
X 57.6108 23.7430 59.6110
X 57.6108 23.7430 60.3110
X 57.6108 23.7430 61.0110
X 58.3108 23.7430 51.9110
X 58.3108 23.7430 52.6110
X 58.3108 23.7430 53.3110
X 58.3108 23.7430 54.0110
X 58.3108 23.7430 54.7110
X 58.3108 23.7430 55.4110
X 58.3108 23.7430 56.1110
X 58.3108 23.7430 56.8110
X 58.3108 23.7430 57.5110
X 58.3108 23.7430 58.2110
X 58.3108 23.7430 58.9110
X 58.3108 23.7430 59.6110
X 58.3108 23.7430 60.3110
X 58.3108 23.7430 61.0110
X 59.0108 23.7430 51.2110
X 59.0108 23.7430 51.9110
X 59.0108 23.7430 52.6110
X 59.0108 23.7430 53.3110
X 59.0108 23.7430 54.0110
X 59.0108 23.7430 54.7110
X 59.0108 23.7430 55.4110
X 59.0108 23.7430 56.1110
X 59.0108 23.7430 56.8110
X 59.0108 23.7430 57.5110
X 59.0108 23.7430 58.2110
X 59.0108 23.7430 58.9110
X 59.0108 23.7430 59.6110
X 59.0108 23.7430 60.3110
X 59.0108 23.7430 61.0110
X 59.7108 23.7430 51.2110
X 59.7108 23.7430 51.9110
X 59.7108 23.7430 52.6110
X 59.7108 23.7430 53.3110
X 59.7108 23.7430 54.0110
X 59.7108 23.7430 54.7110
X 59.7108 23.7430 55.4110
X 59.7108 23.7430 56.1110
X 59.7108 23.7430 56.8110
X 59.7108 23.7430 57.5110
X 59.7108 23.7430 58.2110
X 59.7108 23.7430 58.9110
X 59.7108 23.7430 59.6110
X 59.7108 23.7430 60.3110
X 59.7108 23.7430 61.0110
X 60.4108 23.7430 50.5110
X 60.4108 23.7430 51.2110
X 60.4108 23.7430 51.9110
X 60.4108 23.7430 52.6110
X 60.4108 23.7430 53.3110
X 60.4108 23.7430 54.0110
X 60.4108 23.7430 54.7110
X 60.4108 23.7430 55.4110
X 60.4108 23.7430 56.1110
X 60.4108 23.7430 56.8110
X 60.4108 23.7430 57.5110
X 60.4108 23.7430 58.2110
X 60.4108 23.7430 58.9110
X 60.4108 23.7430 59.6110
X 60.4108 23.7430 60.3110
X 60.4108 23.7430 61.0110
X 61.1108 23.7430 50.5110
X 61.1108 23.7430 51.2110
X 61.1108 23.7430 51.9110
X 61.1108 23.7430 52.6110
X 61.1108 23.7430 53.3110
X 61.1108 23.7430 54.0110
X 61.1108 23.7430 54.7110
X 61.1108 23.7430 55.4110
X 61.1108 23.7430 56.1110
X 61.1108 23.7430 56.8110
X 61.1108 23.7430 57.5110
X 61.1108 23.7430 58.2110
X 61.1108 23.7430 58.9110
X 61.1108 23.7430 59.6110
X 61.1108 23.7430 60.3110
X 61.1108 23.7430 61.0110
X 61.8108 23.7430 50.5110
X 61.8108 23.7430 51.2110
X 61.8108 23.7430 51.9110
X 61.8108 23.7430 52.6110
X 61.8108 23.7430 53.3110
X 61.8108 23.7430 54.0110
X 61.8108 23.7430 54.7110
X 61.8108 23.7430 55.4110
X 61.8108 23.7430 56.1110
X 61.8108 23.7430 56.8110
X 61.8108 23.7430 57.5110
X 61.8108 23.7430 58.2110
X 61.8108 23.7430 58.9110
X 61.8108 23.7430 59.6110
X 61.8108 23.7430 60.3110
X 62.5108 23.7430 50.5110
X 62.5108 23.7430 51.2110
X 62.5108 23.7430 51.9110
X 62.5108 23.7430 52.6110
X 62.5108 23.7430 53.3110
X 62.5108 23.7430 54.0110
X 62.5108 23.7430 54.7110
X 62.5108 23.7430 55.4110
X 62.5108 23.7430 56.1110
X 62.5108 23.7430 56.8110
X 62.5108 23.7430 57.5110
X 62.5108 23.7430 58.2110
X 62.5108 23.7430 58.9110
X 62.5108 23.7430 59.6110
X 62.5108 23.7430 60.3110
X 63.2108 23.7430 50.5110
X 63.2108 23.7430 51.2110
X 63.2108 23.7430 51.9110
X 63.2108 23.7430 52.6110
X 63.2108 23.7430 53.3110
X 63.2108 23.7430 54.0110
X 63.2108 23.7430 54.7110
X 63.2108 23.7430 55.4110
X 63.2108 23.7430 56.1110
X 63.2108 23.7430 56.8110
X 63.2108 23.7430 57.5110
X 63.2108 23.7430 58.2110
X 63.2108 23.7430 58.9110
X 63.2108 23.7430 59.6110
X 63.9108 23.7430 51.2110
X 63.9108 23.7430 51.9110
X 63.9108 23.7430 52.6110
X 63.9108 23.7430 53.3110
X 63.9108 23.7430 54.0110
X 63.9108 23.7430 54.7110
X 63.9108 23.7430 55.4110
X 63.9108 23.7430 56.1110
X 63.9108 23.7430 56.8110
X 63.9108 23.7430 57.5110
X 63.9108 23.7430 58.2110
X 63.9108 23.7430 58.9110
X 64.6108 23.7430 52.6110
X 64.6108 23.7430 53.3110
X 64.6108 23.7430 54.0110
X 64.6108 23.7430 54.7110
X 64.6108 23.7430 55.4110
X 64.6108 23.7430 56.1110
X 64.6108 23.7430 56.8110
X 64.6108 23.7430 57.5110
X 64.6108 23.7430 58.2110
X 65.3108 23.7430 53.3110
X 65.3108 23.7430 54.0110
X 65.3108 23.7430 54.7110
X 65.3108 23.7430 55.4110
X 65.3108 23.7430 56.1110
X 65.3108 23.7430 56.8110
X 65.3108 23.7430 57.5110
X 50.6108 24.4430 55.4110
X 51.3108 24.4430 52.6110
X 51.3108 24.4430 53.3110
X 51.3108 24.4430 54.0110
X 51.3108 24.4430 54.7110
X 51.3108 24.4430 55.4110
X 51.3108 24.4430 56.1110
X 51.3108 24.4430 56.8110
X 51.3108 24.4430 57.5110
X 52.0108 24.4430 51.9110
X 52.0108 24.4430 52.6110
X 52.0108 24.4430 53.3110
X 52.0108 24.4430 54.0110
X 52.0108 24.4430 54.7110
X 52.0108 24.4430 55.4110
X 52.0108 24.4430 56.1110
X 52.0108 24.4430 56.8110
X 52.0108 24.4430 57.5110
X 52.0108 24.4430 58.2110
X 52.7108 24.4430 51.2110
X 52.7108 24.4430 51.9110
X 52.7108 24.4430 52.6110
X 52.7108 24.4430 53.3110
X 52.7108 24.4430 54.0110
X 52.7108 24.4430 54.7110
X 52.7108 24.4430 55.4110
X 52.7108 24.4430 56.1110
X 52.7108 24.4430 56.8110
X 52.7108 24.4430 57.5110
X 52.7108 24.4430 58.2110
X 52.7108 24.4430 58.9110
X 53.4108 24.4430 51.2110
X 53.4108 24.4430 51.9110
X 53.4108 24.4430 52.6110
X 53.4108 24.4430 53.3110
X 53.4108 24.4430 54.0110
X 53.4108 24.4430 54.7110
X 53.4108 24.4430 55.4110
X 53.4108 24.4430 56.1110
X 53.4108 24.4430 56.8110
X 53.4108 24.4430 57.5110
X 53.4108 24.4430 58.2110
X 53.4108 24.4430 58.9110
X 53.4108 24.4430 59.6110
X 53.4108 24.4430 60.3110
X 54.1108 24.4430 51.2110
X 54.1108 24.4430 51.9110
X 54.1108 24.4430 52.6110
X 54.1108 24.4430 53.3110
X 54.1108 24.4430 54.0110
X 54.1108 24.4430 54.7110
X 54.1108 24.4430 55.4110
X 54.1108 24.4430 56.1110
X 54.1108 24.4430 56.8110
X 54.1108 24.4430 57.5110
X 54.1108 24.4430 58.2110
X 54.1108 24.4430 58.9110
X 54.1108 24.4430 59.6110
X 54.1108 24.4430 60.3110
X 54.8108 24.4430 50.5110
X 54.8108 24.4430 51.2110
X 54.8108 24.4430 51.9110
X 54.8108 24.4430 52.6110
X 54.8108 24.4430 53.3110
X 54.8108 24.4430 54.0110
X 54.8108 24.4430 54.7110
X 54.8108 24.4430 55.4110
X 54.8108 24.4430 56.1110
X 54.8108 24.4430 56.8110
X 54.8108 24.4430 57.5110
X 54.8108 24.4430 58.2110
X 54.8108 24.4430 58.9110
X 54.8108 24.4430 59.6110
X 54.8108 24.4430 60.3110
X 54.8108 24.4430 61.0110
X 55.5108 24.4430 50.5110
X 55.5108 24.4430 51.2110
X 55.5108 24.4430 51.9110
X 55.5108 24.4430 52.6110
X 55.5108 24.4430 53.3110
X 55.5108 24.4430 54.0110
X 55.5108 24.4430 54.7110
X 55.5108 24.4430 55.4110
X 55.5108 24.4430 56.1110
X 55.5108 24.4430 56.8110
X 55.5108 24.4430 57.5110
X 55.5108 24.4430 58.2110
X 55.5108 24.4430 58.9110
X 55.5108 24.4430 59.6110
X 55.5108 24.4430 60.3110
X 55.5108 24.4430 61.0110
X 56.2108 24.4430 50.5110
X 56.2108 24.4430 51.2110
X 56.2108 24.4430 51.9110
X 56.2108 24.4430 52.6110
X 56.2108 24.4430 53.3110
X 56.2108 24.4430 54.0110
X 56.2108 24.4430 54.7110
X 56.2108 24.4430 55.4110
X 56.2108 24.4430 56.1110
X 56.2108 24.4430 56.8110
X 56.2108 24.4430 57.5110
X 56.2108 24.4430 58.2110
X 56.2108 24.4430 58.9110
X 56.2108 24.4430 59.6110
X 56.2108 24.4430 60.3110
X 56.2108 24.4430 61.0110
X 56.2108 24.4430 61.7110
X 56.9108 24.4430 50.5110
X 56.9108 24.4430 51.2110
X 56.9108 24.4430 51.9110
X 56.9108 24.4430 52.6110
X 56.9108 24.4430 53.3110
X 56.9108 24.4430 54.0110
X 56.9108 24.4430 54.7110
X 56.9108 24.4430 55.4110
X 56.9108 24.4430 56.1110
X 56.9108 24.4430 56.8110
X 56.9108 24.4430 57.5110
X 56.9108 24.4430 58.2110
X 56.9108 24.4430 58.9110
X 56.9108 24.4430 59.6110
X 56.9108 24.4430 60.3110
X 56.9108 24.4430 61.0110
X 56.9108 24.4430 61.7110
X 57.6108 24.4430 51.2110
X 57.6108 24.4430 51.9110
X 57.6108 24.4430 52.6110
X 57.6108 24.4430 53.3110
X 57.6108 24.4430 54.0110
X 57.6108 24.4430 54.7110
X 57.6108 24.4430 55.4110
X 57.6108 24.4430 56.1110
X 57.6108 24.4430 56.8110
X 57.6108 24.4430 57.5110
X 57.6108 24.4430 58.2110
X 57.6108 24.4430 58.9110
X 57.6108 24.4430 59.6110
X 57.6108 24.4430 60.3110
X 57.6108 24.4430 61.0110
X 57.6108 24.4430 61.7110
X 58.3108 24.4430 50.5110
X 58.3108 24.4430 51.2110
X 58.3108 24.4430 51.9110
X 58.3108 24.4430 52.6110
X 58.3108 24.4430 53.3110
X 58.3108 24.4430 54.0110
X 58.3108 24.4430 54.7110
X 58.3108 24.4430 55.4110
X 58.3108 24.4430 56.1110
X 58.3108 24.4430 56.8110
X 58.3108 24.4430 57.5110
X 58.3108 24.4430 58.2110
X 58.3108 24.4430 58.9110
X 58.3108 24.4430 59.6110
X 58.3108 24.4430 60.3110
X 58.3108 24.4430 61.0110
X 58.3108 24.4430 61.7110
X 59.0108 24.4430 49.8110
X 59.0108 24.4430 50.5110
X 59.0108 24.4430 51.2110
X 59.0108 24.4430 51.9110
X 59.0108 24.4430 52.6110
X 59.0108 24.4430 53.3110
X 59.0108 24.4430 54.0110
X 59.0108 24.4430 54.7110
X 59.0108 24.4430 55.4110
X 59.0108 24.4430 56.1110
X 59.0108 24.4430 56.8110
X 59.0108 24.4430 57.5110
X 59.0108 24.4430 58.2110
X 59.0108 24.4430 58.9110
X 59.0108 24.4430 59.6110
X 59.0108 24.4430 60.3110
X 59.0108 24.4430 61.0110
X 59.0108 24.4430 61.7110
X 59.7108 24.4430 49.1110
X 59.7108 24.4430 49.8110
X 59.7108 24.4430 50.5110
X 59.7108 24.4430 51.2110
X 59.7108 24.4430 51.9110
X 59.7108 24.4430 52.6110
X 59.7108 24.4430 53.3110
X 59.7108 24.4430 54.0110
X 59.7108 24.4430 54.7110
X 59.7108 24.4430 55.4110
X 59.7108 24.4430 56.1110
X 59.7108 24.4430 56.8110
X 59.7108 24.4430 57.5110
X 59.7108 24.4430 58.2110
X 59.7108 24.4430 58.9110
X 59.7108 24.4430 59.6110
X 59.7108 24.4430 60.3110
X 59.7108 24.4430 61.0110
X 59.7108 24.4430 61.7110
X 60.4108 24.4430 49.1110
X 60.4108 24.4430 49.8110
X 60.4108 24.4430 50.5110
X 60.4108 24.4430 51.2110
X 60.4108 24.4430 51.9110
X 60.4108 24.4430 52.6110
X 60.4108 24.4430 53.3110
X 60.4108 24.4430 54.0110
X 60.4108 24.4430 54.7110
X 60.4108 24.4430 55.4110
X 60.4108 24.4430 56.1110
X 60.4108 24.4430 56.8110
X 60.4108 24.4430 57.5110
X 60.4108 24.4430 58.2110
X 60.4108 24.4430 58.9110
X 60.4108 24.4430 59.6110
X 60.4108 24.4430 60.3110
X 60.4108 24.4430 61.0110
X 60.4108 24.4430 61.7110
X 61.1108 24.4430 49.1110
X 61.1108 24.4430 49.8110
X 61.1108 24.4430 50.5110
X 61.1108 24.4430 51.2110
X 61.1108 24.4430 51.9110
X 61.1108 24.4430 52.6110
X 61.1108 24.4430 53.3110
X 61.1108 24.4430 54.0110
X 61.1108 24.4430 54.7110
X 61.1108 24.4430 55.4110
X 61.1108 24.4430 56.1110
X 61.1108 24.4430 56.8110
X 61.1108 24.4430 57.5110
X 61.1108 24.4430 58.2110
X 61.1108 24.4430 58.9110
X 61.1108 24.4430 59.6110
X 61.1108 24.4430 60.3110
X 61.1108 24.4430 61.0110
X 61.1108 24.4430 61.7110
X 61.8108 24.4430 49.1110
X 61.8108 24.4430 49.8110
X 61.8108 24.4430 50.5110
X 61.8108 24.4430 51.2110
X 61.8108 24.4430 51.9110
X 61.8108 24.4430 52.6110
X 61.8108 24.4430 53.3110
X 61.8108 24.4430 54.0110
X 61.8108 24.4430 54.7110
X 61.8108 24.4430 55.4110
X 61.8108 24.4430 56.1110
X 61.8108 24.4430 56.8110
X 61.8108 24.4430 57.5110
X 61.8108 24.4430 58.2110
X 61.8108 24.4430 58.9110
X 61.8108 24.4430 59.6110
X 61.8108 24.4430 60.3110
X 61.8108 24.4430 61.0110
X 61.8108 24.4430 61.7110
X 62.5108 24.4430 49.1110
X 62.5108 24.4430 49.8110
X 62.5108 24.4430 50.5110
X 62.5108 24.4430 51.2110
X 62.5108 24.4430 51.9110
X 62.5108 24.4430 52.6110
X 62.5108 24.4430 53.3110
X 62.5108 24.4430 54.0110
X 62.5108 24.4430 54.7110
X 62.5108 24.4430 55.4110
X 62.5108 24.4430 56.1110
X 62.5108 24.4430 56.8110
X 62.5108 24.4430 57.5110
X 62.5108 24.4430 58.2110
X 62.5108 24.4430 58.9110
X 62.5108 24.4430 59.6110
X 62.5108 24.4430 60.3110
X 62.5108 24.4430 61.0110
X 63.2108 24.4430 49.1110
X 63.2108 24.4430 49.8110
X 63.2108 24.4430 50.5110
X 63.2108 24.4430 51.2110
X 63.2108 24.4430 51.9110
X 63.2108 24.4430 52.6110
X 63.2108 24.4430 53.3110
X 63.2108 24.4430 54.0110
X 63.2108 24.4430 54.7110
X 63.2108 24.4430 55.4110
X 63.2108 24.4430 56.1110
X 63.2108 24.4430 56.8110
X 63.2108 24.4430 57.5110
X 63.2108 24.4430 58.2110
X 63.2108 24.4430 58.9110
X 63.2108 24.4430 59.6110
X 63.2108 24.4430 60.3110
X 63.2108 24.4430 61.0110
X 63.9108 24.4430 49.8110
X 63.9108 24.4430 50.5110
X 63.9108 24.4430 51.2110
X 63.9108 24.4430 51.9110
X 63.9108 24.4430 52.6110
X 63.9108 24.4430 53.3110
X 63.9108 24.4430 54.0110
X 63.9108 24.4430 54.7110
X 63.9108 24.4430 55.4110
X 63.9108 24.4430 56.1110
X 63.9108 24.4430 56.8110
X 63.9108 24.4430 57.5110
X 63.9108 24.4430 58.2110
X 63.9108 24.4430 58.9110
X 63.9108 24.4430 59.6110
X 63.9108 24.4430 60.3110
X 64.6108 24.4430 49.8110
X 64.6108 24.4430 50.5110
X 64.6108 24.4430 51.2110
X 64.6108 24.4430 51.9110
X 64.6108 24.4430 52.6110
X 64.6108 24.4430 53.3110
X 64.6108 24.4430 54.0110
X 64.6108 24.4430 54.7110
X 64.6108 24.4430 55.4110
X 64.6108 24.4430 56.1110
X 64.6108 24.4430 56.8110
X 64.6108 24.4430 57.5110
X 64.6108 24.4430 58.2110
X 64.6108 24.4430 58.9110
X 64.6108 24.4430 59.6110
X 65.3108 24.4430 51.2110
X 65.3108 24.4430 51.9110
X 65.3108 24.4430 52.6110
X 65.3108 24.4430 53.3110
X 65.3108 24.4430 54.0110
X 65.3108 24.4430 54.7110
X 65.3108 24.4430 55.4110
X 65.3108 24.4430 56.1110
X 65.3108 24.4430 56.8110
X 65.3108 24.4430 57.5110
X 65.3108 24.4430 58.2110
X 65.3108 24.4430 58.9110
X 66.0108 24.4430 51.9110
X 66.0108 24.4430 52.6110
X 66.0108 24.4430 53.3110
X 66.0108 24.4430 54.0110
X 66.0108 24.4430 54.7110
X 66.0108 24.4430 55.4110
X 66.0108 24.4430 56.1110
X 66.0108 24.4430 56.8110
X 66.0108 24.4430 57.5110
X 66.0108 24.4430 58.2110
X 66.7108 24.4430 54.0110
X 66.7108 24.4430 54.7110
X 66.7108 24.4430 55.4110
X 66.7108 24.4430 56.1110
X 66.7108 24.4430 56.8110
X 66.7108 24.4430 57.5110
X 49.9108 25.1430 53.3110
X 49.9108 25.1430 54.0110
X 49.9108 25.1430 54.7110
X 49.9108 25.1430 55.4110
X 49.9108 25.1430 56.1110
X 49.9108 25.1430 56.8110
X 50.6108 25.1430 51.9110
X 50.6108 25.1430 52.6110
X 50.6108 25.1430 53.3110
X 50.6108 25.1430 54.0110
X 50.6108 25.1430 54.7110
X 50.6108 25.1430 55.4110
X 50.6108 25.1430 56.1110
X 50.6108 25.1430 56.8110
X 50.6108 25.1430 57.5110
X 50.6108 25.1430 58.2110
X 51.3108 25.1430 51.2110
X 51.3108 25.1430 51.9110
X 51.3108 25.1430 52.6110
X 51.3108 25.1430 53.3110
X 51.3108 25.1430 54.0110
X 51.3108 25.1430 54.7110
X 51.3108 25.1430 55.4110
X 51.3108 25.1430 56.1110
X 51.3108 25.1430 56.8110
X 51.3108 25.1430 57.5110
X 51.3108 25.1430 58.2110
X 51.3108 25.1430 58.9110
X 52.0108 25.1430 50.5110
X 52.0108 25.1430 51.2110
X 52.0108 25.1430 51.9110
X 52.0108 25.1430 52.6110
X 52.0108 25.1430 53.3110
X 52.0108 25.1430 54.0110
X 52.0108 25.1430 54.7110
X 52.0108 25.1430 55.4110
X 52.0108 25.1430 56.1110
X 52.0108 25.1430 56.8110
X 52.0108 25.1430 57.5110
X 52.0108 25.1430 58.2110
X 52.0108 25.1430 58.9110
X 52.0108 25.1430 59.6110
X 52.7108 25.1430 50.5110
X 52.7108 25.1430 51.2110
X 52.7108 25.1430 51.9110
X 52.7108 25.1430 52.6110
X 52.7108 25.1430 53.3110
X 52.7108 25.1430 54.0110
X 52.7108 25.1430 54.7110
X 52.7108 25.1430 55.4110
X 52.7108 25.1430 56.1110
X 52.7108 25.1430 56.8110
X 52.7108 25.1430 57.5110
X 52.7108 25.1430 58.2110
X 52.7108 25.1430 58.9110
X 52.7108 25.1430 59.6110
X 52.7108 25.1430 60.3110
X 53.4108 25.1430 49.8110
X 53.4108 25.1430 50.5110
X 53.4108 25.1430 51.2110
X 53.4108 25.1430 51.9110
X 53.4108 25.1430 52.6110
X 53.4108 25.1430 53.3110
X 53.4108 25.1430 54.0110
X 53.4108 25.1430 54.7110
X 53.4108 25.1430 55.4110
X 53.4108 25.1430 56.1110
X 53.4108 25.1430 56.8110
X 53.4108 25.1430 57.5110
X 53.4108 25.1430 58.2110
X 53.4108 25.1430 58.9110
X 53.4108 25.1430 59.6110
X 53.4108 25.1430 60.3110
X 53.4108 25.1430 61.0110
X 54.1108 25.1430 49.8110
X 54.1108 25.1430 50.5110
X 54.1108 25.1430 51.2110
X 54.1108 25.1430 51.9110
X 54.1108 25.1430 52.6110
X 54.1108 25.1430 53.3110
X 54.1108 25.1430 54.0110
X 54.1108 25.1430 54.7110
X 54.1108 25.1430 55.4110
X 54.1108 25.1430 56.1110
X 54.1108 25.1430 56.8110
X 54.1108 25.1430 57.5110
X 54.1108 25.1430 58.2110
X 54.1108 25.1430 58.9110
X 54.1108 25.1430 59.6110
X 54.1108 25.1430 60.3110
X 54.1108 25.1430 61.0110
X 54.1108 25.1430 61.7110
X 54.8108 25.1430 49.8110
X 54.8108 25.1430 50.5110
X 54.8108 25.1430 51.2110
X 54.8108 25.1430 51.9110
X 54.8108 25.1430 52.6110
X 54.8108 25.1430 53.3110
X 54.8108 25.1430 54.0110
X 54.8108 25.1430 54.7110
X 54.8108 25.1430 55.4110
X 54.8108 25.1430 56.1110
X 54.8108 25.1430 56.8110
X 54.8108 25.1430 57.5110
X 54.8108 25.1430 58.2110
X 54.8108 25.1430 58.9110
X 54.8108 25.1430 59.6110
X 54.8108 25.1430 60.3110
X 54.8108 25.1430 61.0110
X 54.8108 25.1430 61.7110
X 55.5108 25.1430 49.8110
X 55.5108 25.1430 50.5110
X 55.5108 25.1430 51.2110
X 55.5108 25.1430 51.9110
X 55.5108 25.1430 52.6110
X 55.5108 25.1430 53.3110
X 55.5108 25.1430 54.0110
X 55.5108 25.1430 54.7110
X 55.5108 25.1430 55.4110
X 55.5108 25.1430 56.1110
X 55.5108 25.1430 56.8110
X 55.5108 25.1430 57.5110
X 55.5108 25.1430 58.2110
X 55.5108 25.1430 58.9110
X 55.5108 25.1430 59.6110
X 55.5108 25.1430 60.3110
X 55.5108 25.1430 61.0110
X 55.5108 25.1430 61.7110
X 55.5108 25.1430 62.4110
X 56.2108 25.1430 49.8110
X 56.2108 25.1430 50.5110
X 56.2108 25.1430 51.2110
X 56.2108 25.1430 51.9110
X 56.2108 25.1430 52.6110
X 56.2108 25.1430 53.3110
X 56.2108 25.1430 54.0110
X 56.2108 25.1430 54.7110
X 56.2108 25.1430 55.4110
X 56.2108 25.1430 56.1110
X 56.2108 25.1430 56.8110
X 56.2108 25.1430 57.5110
X 56.2108 25.1430 58.2110
X 56.2108 25.1430 58.9110
X 56.2108 25.1430 59.6110
X 56.2108 25.1430 60.3110
X 56.2108 25.1430 61.0110
X 56.2108 25.1430 61.7110
X 56.2108 25.1430 62.4110
X 56.9108 25.1430 49.8110
X 56.9108 25.1430 50.5110
X 56.9108 25.1430 51.2110
X 56.9108 25.1430 51.9110
X 56.9108 25.1430 52.6110
X 56.9108 25.1430 53.3110
X 56.9108 25.1430 54.0110
X 56.9108 25.1430 54.7110
X 56.9108 25.1430 55.4110
X 56.9108 25.1430 56.1110
X 56.9108 25.1430 56.8110
X 56.9108 25.1430 57.5110
X 56.9108 25.1430 58.2110
X 56.9108 25.1430 58.9110
X 56.9108 25.1430 59.6110
X 56.9108 25.1430 60.3110
X 56.9108 25.1430 61.0110
X 56.9108 25.1430 61.7110
X 56.9108 25.1430 62.4110
X 57.6108 25.1430 49.8110
X 57.6108 25.1430 50.5110
X 57.6108 25.1430 51.2110
X 57.6108 25.1430 51.9110
X 57.6108 25.1430 52.6110
X 57.6108 25.1430 53.3110
X 57.6108 25.1430 54.0110
X 57.6108 25.1430 54.7110
X 57.6108 25.1430 55.4110
X 57.6108 25.1430 56.1110
X 57.6108 25.1430 56.8110
X 57.6108 25.1430 57.5110
X 57.6108 25.1430 58.2110
X 57.6108 25.1430 58.9110
X 57.6108 25.1430 59.6110
X 57.6108 25.1430 60.3110
X 57.6108 25.1430 61.0110
X 57.6108 25.1430 61.7110
X 57.6108 25.1430 62.4110
X 58.3108 25.1430 49.1110
X 58.3108 25.1430 49.8110
X 58.3108 25.1430 50.5110
X 58.3108 25.1430 51.2110
X 58.3108 25.1430 51.9110
X 58.3108 25.1430 52.6110
X 58.3108 25.1430 53.3110
X 58.3108 25.1430 54.0110
X 58.3108 25.1430 54.7110
X 58.3108 25.1430 55.4110
X 58.3108 25.1430 56.1110
X 58.3108 25.1430 56.8110
X 58.3108 25.1430 57.5110
X 58.3108 25.1430 58.2110
X 58.3108 25.1430 58.9110
X 58.3108 25.1430 59.6110
X 58.3108 25.1430 60.3110
X 58.3108 25.1430 61.0110
X 58.3108 25.1430 61.7110
X 58.3108 25.1430 62.4110
X 59.0108 25.1430 48.4110
X 59.0108 25.1430 49.1110
X 59.0108 25.1430 49.8110
X 59.0108 25.1430 50.5110
X 59.0108 25.1430 51.2110
X 59.0108 25.1430 51.9110
X 59.0108 25.1430 52.6110
X 59.0108 25.1430 53.3110
X 59.0108 25.1430 54.0110
X 59.0108 25.1430 54.7110
X 59.0108 25.1430 55.4110
X 59.0108 25.1430 56.1110
X 59.0108 25.1430 56.8110
X 59.0108 25.1430 57.5110
X 59.0108 25.1430 58.2110
X 59.0108 25.1430 58.9110
X 59.0108 25.1430 59.6110
X 59.0108 25.1430 60.3110
X 59.0108 25.1430 61.0110
X 59.0108 25.1430 61.7110
X 59.0108 25.1430 62.4110
X 59.7108 25.1430 48.4110
X 59.7108 25.1430 49.1110
X 59.7108 25.1430 49.8110
X 59.7108 25.1430 50.5110
X 59.7108 25.1430 51.2110
X 59.7108 25.1430 51.9110
X 59.7108 25.1430 52.6110
X 59.7108 25.1430 53.3110
X 59.7108 25.1430 54.0110
X 59.7108 25.1430 54.7110
X 59.7108 25.1430 55.4110
X 59.7108 25.1430 56.1110
X 59.7108 25.1430 56.8110
X 59.7108 25.1430 57.5110
X 59.7108 25.1430 58.2110
X 59.7108 25.1430 58.9110
X 59.7108 25.1430 59.6110
X 59.7108 25.1430 60.3110
X 59.7108 25.1430 61.0110
X 59.7108 25.1430 61.7110
X 59.7108 25.1430 62.4110
X 60.4108 25.1430 48.4110
X 60.4108 25.1430 49.1110
X 60.4108 25.1430 49.8110
X 60.4108 25.1430 50.5110
X 60.4108 25.1430 51.2110
X 60.4108 25.1430 51.9110
X 60.4108 25.1430 52.6110
X 60.4108 25.1430 53.3110
X 60.4108 25.1430 54.0110
X 60.4108 25.1430 54.7110
X 60.4108 25.1430 55.4110
X 60.4108 25.1430 56.1110
X 60.4108 25.1430 56.8110
X 60.4108 25.1430 57.5110
X 60.4108 25.1430 58.2110
X 60.4108 25.1430 58.9110
X 60.4108 25.1430 59.6110
X 60.4108 25.1430 60.3110
X 60.4108 25.1430 61.0110
X 60.4108 25.1430 61.7110
X 60.4108 25.1430 62.4110
X 61.1108 25.1430 47.7110
X 61.1108 25.1430 48.4110
X 61.1108 25.1430 49.1110
X 61.1108 25.1430 49.8110
X 61.1108 25.1430 50.5110
X 61.1108 25.1430 51.2110
X 61.1108 25.1430 51.9110
X 61.1108 25.1430 52.6110
X 61.1108 25.1430 53.3110
X 61.1108 25.1430 54.0110
X 61.1108 25.1430 54.7110
X 61.1108 25.1430 55.4110
X 61.1108 25.1430 56.1110
X 61.1108 25.1430 56.8110
X 61.1108 25.1430 57.5110
X 61.1108 25.1430 58.2110
X 61.1108 25.1430 58.9110
X 61.1108 25.1430 59.6110
X 61.1108 25.1430 60.3110
X 61.1108 25.1430 61.0110
X 61.1108 25.1430 61.7110
X 61.1108 25.1430 62.4110
X 61.8108 25.1430 47.7110
X 61.8108 25.1430 48.4110
X 61.8108 25.1430 49.1110
X 61.8108 25.1430 49.8110
X 61.8108 25.1430 50.5110
X 61.8108 25.1430 51.2110
X 61.8108 25.1430 51.9110
X 61.8108 25.1430 52.6110
X 61.8108 25.1430 53.3110
X 61.8108 25.1430 54.0110
X 61.8108 25.1430 54.7110
X 61.8108 25.1430 55.4110
X 61.8108 25.1430 56.1110
X 61.8108 25.1430 56.8110
X 61.8108 25.1430 57.5110
X 61.8108 25.1430 58.2110
X 61.8108 25.1430 58.9110
X 61.8108 25.1430 59.6110
X 61.8108 25.1430 60.3110
X 61.8108 25.1430 61.0110
X 61.8108 25.1430 61.7110
X 61.8108 25.1430 62.4110
X 62.5108 25.1430 48.4110
X 62.5108 25.1430 49.1110
X 62.5108 25.1430 49.8110
X 62.5108 25.1430 50.5110
X 62.5108 25.1430 51.2110
X 62.5108 25.1430 51.9110
X 62.5108 25.1430 52.6110
X 62.5108 25.1430 53.3110
X 62.5108 25.1430 54.0110
X 62.5108 25.1430 54.7110
X 62.5108 25.1430 55.4110
X 62.5108 25.1430 56.1110
X 62.5108 25.1430 56.8110
X 62.5108 25.1430 57.5110
X 62.5108 25.1430 58.2110
X 62.5108 25.1430 58.9110
X 62.5108 25.1430 59.6110
X 62.5108 25.1430 60.3110
X 62.5108 25.1430 61.0110
X 62.5108 25.1430 61.7110
X 63.2108 25.1430 48.4110
X 63.2108 25.1430 49.1110
X 63.2108 25.1430 49.8110
X 63.2108 25.1430 50.5110
X 63.2108 25.1430 51.2110
X 63.2108 25.1430 51.9110
X 63.2108 25.1430 52.6110
X 63.2108 25.1430 53.3110
X 63.2108 25.1430 54.0110
X 63.2108 25.1430 54.7110
X 63.2108 25.1430 55.4110
X 63.2108 25.1430 56.1110
X 63.2108 25.1430 56.8110
X 63.2108 25.1430 57.5110
X 63.2108 25.1430 58.2110
X 63.2108 25.1430 58.9110
X 63.2108 25.1430 59.6110
X 63.2108 25.1430 60.3110
X 63.2108 25.1430 61.0110
X 63.2108 25.1430 61.7110
X 63.9108 25.1430 48.4110
X 63.9108 25.1430 49.1110
X 63.9108 25.1430 49.8110
X 63.9108 25.1430 50.5110
X 63.9108 25.1430 51.2110
X 63.9108 25.1430 51.9110
X 63.9108 25.1430 52.6110
X 63.9108 25.1430 53.3110
X 63.9108 25.1430 54.0110
X 63.9108 25.1430 54.7110
X 63.9108 25.1430 55.4110
X 63.9108 25.1430 56.1110
X 63.9108 25.1430 56.8110
X 63.9108 25.1430 57.5110
X 63.9108 25.1430 58.2110
X 63.9108 25.1430 58.9110
X 63.9108 25.1430 59.6110
X 63.9108 25.1430 60.3110
X 63.9108 25.1430 61.0110
X 64.6108 25.1430 49.1110
X 64.6108 25.1430 49.8110
X 64.6108 25.1430 50.5110
X 64.6108 25.1430 51.2110
X 64.6108 25.1430 51.9110
X 64.6108 25.1430 52.6110
X 64.6108 25.1430 53.3110
X 64.6108 25.1430 54.0110
X 64.6108 25.1430 54.7110
X 64.6108 25.1430 55.4110
X 64.6108 25.1430 56.1110
X 64.6108 25.1430 56.8110
X 64.6108 25.1430 57.5110
X 64.6108 25.1430 58.2110
X 64.6108 25.1430 58.9110
X 64.6108 25.1430 59.6110
X 64.6108 25.1430 60.3110
X 64.6108 25.1430 61.0110
X 65.3108 25.1430 49.1110
X 65.3108 25.1430 49.8110
X 65.3108 25.1430 50.5110
X 65.3108 25.1430 51.2110
X 65.3108 25.1430 51.9110
X 65.3108 25.1430 52.6110
X 65.3108 25.1430 53.3110
X 65.3108 25.1430 54.0110
X 65.3108 25.1430 54.7110
X 65.3108 25.1430 55.4110
X 65.3108 25.1430 56.1110
X 65.3108 25.1430 56.8110
X 65.3108 25.1430 57.5110
X 65.3108 25.1430 58.2110
X 65.3108 25.1430 58.9110
X 65.3108 25.1430 59.6110
X 65.3108 25.1430 60.3110
X 66.0108 25.1430 50.5110
X 66.0108 25.1430 51.2110
X 66.0108 25.1430 51.9110
X 66.0108 25.1430 52.6110
X 66.0108 25.1430 53.3110
X 66.0108 25.1430 54.0110
X 66.0108 25.1430 54.7110
X 66.0108 25.1430 55.4110
X 66.0108 25.1430 56.1110
X 66.0108 25.1430 56.8110
X 66.0108 25.1430 57.5110
X 66.0108 25.1430 58.2110
X 66.0108 25.1430 58.9110
X 66.0108 25.1430 59.6110
X 66.7108 25.1430 51.2110
X 66.7108 25.1430 51.9110
X 66.7108 25.1430 52.6110
X 66.7108 25.1430 53.3110
X 66.7108 25.1430 54.0110
X 66.7108 25.1430 54.7110
X 66.7108 25.1430 55.4110
X 66.7108 25.1430 56.1110
X 66.7108 25.1430 56.8110
X 66.7108 25.1430 57.5110
X 66.7108 25.1430 58.2110
X 66.7108 25.1430 58.9110
X 67.4108 25.1430 53.3110
X 67.4108 25.1430 54.0110
X 67.4108 25.1430 54.7110
X 67.4108 25.1430 55.4110
X 67.4108 25.1430 56.1110
X 67.4108 25.1430 56.8110
X 67.4108 25.1430 57.5110
X 49.2108 25.8430 53.3110
X 49.2108 25.8430 54.0110
X 49.2108 25.8430 54.7110
X 49.2108 25.8430 55.4110
X 49.2108 25.8430 56.1110
X 49.2108 25.8430 56.8110
X 49.9108 25.8430 51.9110
X 49.9108 25.8430 52.6110
X 49.9108 25.8430 53.3110
X 49.9108 25.8430 54.0110
X 49.9108 25.8430 54.7110
X 49.9108 25.8430 55.4110
X 49.9108 25.8430 56.1110
X 49.9108 25.8430 56.8110
X 49.9108 25.8430 57.5110
X 49.9108 25.8430 58.2110
X 50.6108 25.8430 51.2110
X 50.6108 25.8430 51.9110
X 50.6108 25.8430 52.6110
X 50.6108 25.8430 53.3110
X 50.6108 25.8430 54.0110
X 50.6108 25.8430 54.7110
X 50.6108 25.8430 55.4110
X 50.6108 25.8430 56.1110
X 50.6108 25.8430 56.8110
X 50.6108 25.8430 57.5110
X 50.6108 25.8430 58.2110
X 50.6108 25.8430 58.9110
X 51.3108 25.8430 50.5110
X 51.3108 25.8430 51.2110
X 51.3108 25.8430 51.9110
X 51.3108 25.8430 52.6110
X 51.3108 25.8430 53.3110
X 51.3108 25.8430 54.0110
X 51.3108 25.8430 54.7110
X 51.3108 25.8430 55.4110
X 51.3108 25.8430 56.1110
X 51.3108 25.8430 56.8110
X 51.3108 25.8430 57.5110
X 51.3108 25.8430 58.2110
X 51.3108 25.8430 58.9110
X 51.3108 25.8430 59.6110
X 52.0108 25.8430 49.8110
X 52.0108 25.8430 50.5110
X 52.0108 25.8430 51.2110
X 52.0108 25.8430 51.9110
X 52.0108 25.8430 52.6110
X 52.0108 25.8430 53.3110
X 52.0108 25.8430 54.0110
X 52.0108 25.8430 54.7110
X 52.0108 25.8430 55.4110
X 52.0108 25.8430 56.1110
X 52.0108 25.8430 56.8110
X 52.0108 25.8430 57.5110
X 52.0108 25.8430 58.2110
X 52.0108 25.8430 58.9110
X 52.0108 25.8430 59.6110
X 52.0108 25.8430 60.3110
X 52.0108 25.8430 61.0110
X 52.7108 25.8430 49.8110
X 52.7108 25.8430 50.5110
X 52.7108 25.8430 51.2110
X 52.7108 25.8430 51.9110
X 52.7108 25.8430 52.6110
X 52.7108 25.8430 53.3110
X 52.7108 25.8430 54.0110
X 52.7108 25.8430 54.7110
X 52.7108 25.8430 55.4110
X 52.7108 25.8430 56.1110
X 52.7108 25.8430 56.8110
X 52.7108 25.8430 57.5110
X 52.7108 25.8430 58.2110
X 52.7108 25.8430 58.9110
X 52.7108 25.8430 59.6110
X 52.7108 25.8430 60.3110
X 52.7108 25.8430 61.0110
X 52.7108 25.8430 61.7110
X 53.4108 25.8430 49.1110
X 53.4108 25.8430 49.8110
X 53.4108 25.8430 50.5110
X 53.4108 25.8430 51.2110
X 53.4108 25.8430 51.9110
X 53.4108 25.8430 52.6110
X 53.4108 25.8430 53.3110
X 53.4108 25.8430 54.0110
X 53.4108 25.8430 54.7110
X 53.4108 25.8430 55.4110
X 53.4108 25.8430 56.1110
X 53.4108 25.8430 56.8110
X 53.4108 25.8430 57.5110
X 53.4108 25.8430 58.2110
X 53.4108 25.8430 58.9110
X 53.4108 25.8430 59.6110
X 53.4108 25.8430 60.3110
X 53.4108 25.8430 61.0110
X 53.4108 25.8430 61.7110
X 54.1108 25.8430 49.1110
X 54.1108 25.8430 49.8110
X 54.1108 25.8430 50.5110
X 54.1108 25.8430 51.2110
X 54.1108 25.8430 51.9110
X 54.1108 25.8430 52.6110
X 54.1108 25.8430 53.3110
X 54.1108 25.8430 54.0110
X 54.1108 25.8430 54.7110
X 54.1108 25.8430 55.4110
X 54.1108 25.8430 56.1110
X 54.1108 25.8430 56.8110
X 54.1108 25.8430 57.5110
X 54.1108 25.8430 58.2110
X 54.1108 25.8430 58.9110
X 54.1108 25.8430 59.6110
X 54.1108 25.8430 60.3110
X 54.1108 25.8430 61.0110
X 54.1108 25.8430 61.7110
X 54.1108 25.8430 62.4110
X 54.8108 25.8430 48.4110
X 54.8108 25.8430 49.1110
X 54.8108 25.8430 49.8110
X 54.8108 25.8430 50.5110
X 54.8108 25.8430 51.2110
X 54.8108 25.8430 51.9110
X 54.8108 25.8430 52.6110
X 54.8108 25.8430 53.3110
X 54.8108 25.8430 54.0110
X 54.8108 25.8430 54.7110
X 54.8108 25.8430 55.4110
X 54.8108 25.8430 56.1110
X 54.8108 25.8430 56.8110
X 54.8108 25.8430 57.5110
X 54.8108 25.8430 58.2110
X 54.8108 25.8430 58.9110
X 54.8108 25.8430 59.6110
X 54.8108 25.8430 60.3110
X 54.8108 25.8430 61.0110
X 54.8108 25.8430 61.7110
X 54.8108 25.8430 62.4110
X 55.5108 25.8430 48.4110
X 55.5108 25.8430 49.1110
X 55.5108 25.8430 49.8110
X 55.5108 25.8430 50.5110
X 55.5108 25.8430 51.2110
X 55.5108 25.8430 51.9110
X 55.5108 25.8430 52.6110
X 55.5108 25.8430 53.3110
X 55.5108 25.8430 54.0110
X 55.5108 25.8430 54.7110
X 55.5108 25.8430 55.4110
X 55.5108 25.8430 56.1110
X 55.5108 25.8430 56.8110
X 55.5108 25.8430 57.5110
X 55.5108 25.8430 58.2110
X 55.5108 25.8430 58.9110
X 55.5108 25.8430 59.6110
X 55.5108 25.8430 60.3110
X 55.5108 25.8430 61.0110
X 55.5108 25.8430 61.7110
X 55.5108 25.8430 62.4110
X 55.5108 25.8430 63.1110
X 56.2108 25.8430 48.4110
X 56.2108 25.8430 49.1110
X 56.2108 25.8430 49.8110
X 56.2108 25.8430 50.5110
X 56.2108 25.8430 51.2110
X 56.2108 25.8430 51.9110
X 56.2108 25.8430 52.6110
X 56.2108 25.8430 53.3110
X 56.2108 25.8430 54.0110
X 56.2108 25.8430 54.7110
X 56.2108 25.8430 55.4110
X 56.2108 25.8430 56.1110
X 56.2108 25.8430 56.8110
X 56.2108 25.8430 57.5110
X 56.2108 25.8430 58.2110
X 56.2108 25.8430 58.9110
X 56.2108 25.8430 59.6110
X 56.2108 25.8430 60.3110
X 56.2108 25.8430 61.0110
X 56.2108 25.8430 61.7110
X 56.2108 25.8430 62.4110
X 56.2108 25.8430 63.1110
X 56.9108 25.8430 48.4110
X 56.9108 25.8430 49.1110
X 56.9108 25.8430 49.8110
X 56.9108 25.8430 50.5110
X 56.9108 25.8430 51.2110
X 56.9108 25.8430 51.9110
X 56.9108 25.8430 52.6110
X 56.9108 25.8430 53.3110
X 56.9108 25.8430 54.0110
X 56.9108 25.8430 54.7110
X 56.9108 25.8430 55.4110
X 56.9108 25.8430 56.1110
X 56.9108 25.8430 56.8110
X 56.9108 25.8430 57.5110
X 56.9108 25.8430 58.2110
X 56.9108 25.8430 58.9110
X 56.9108 25.8430 59.6110
X 56.9108 25.8430 60.3110
X 56.9108 25.8430 61.0110
X 56.9108 25.8430 61.7110
X 56.9108 25.8430 62.4110
X 56.9108 25.8430 63.1110
X 57.6108 25.8430 48.4110
X 57.6108 25.8430 49.1110
X 57.6108 25.8430 49.8110
X 57.6108 25.8430 50.5110
X 57.6108 25.8430 51.2110
X 57.6108 25.8430 51.9110
X 57.6108 25.8430 52.6110
X 57.6108 25.8430 53.3110
X 57.6108 25.8430 54.0110
X 57.6108 25.8430 54.7110
X 57.6108 25.8430 55.4110
X 57.6108 25.8430 56.1110
X 57.6108 25.8430 56.8110
X 57.6108 25.8430 57.5110
X 57.6108 25.8430 58.2110
X 57.6108 25.8430 58.9110
X 57.6108 25.8430 59.6110
X 57.6108 25.8430 60.3110
X 57.6108 25.8430 61.0110
X 57.6108 25.8430 61.7110
X 57.6108 25.8430 62.4110
X 57.6108 25.8430 63.1110
X 58.3108 25.8430 48.4110
X 58.3108 25.8430 49.1110
X 58.3108 25.8430 49.8110
X 58.3108 25.8430 50.5110
X 58.3108 25.8430 51.2110
X 58.3108 25.8430 51.9110
X 58.3108 25.8430 52.6110
X 58.3108 25.8430 53.3110
X 58.3108 25.8430 54.0110
X 58.3108 25.8430 54.7110
X 58.3108 25.8430 55.4110
X 58.3108 25.8430 56.1110
X 58.3108 25.8430 56.8110
X 58.3108 25.8430 57.5110
X 58.3108 25.8430 58.2110
X 58.3108 25.8430 58.9110
X 58.3108 25.8430 59.6110
X 58.3108 25.8430 60.3110
X 58.3108 25.8430 61.0110
X 58.3108 25.8430 61.7110
X 58.3108 25.8430 62.4110
X 58.3108 25.8430 63.1110
X 59.0108 25.8430 47.7110
X 59.0108 25.8430 48.4110
X 59.0108 25.8430 49.1110
X 59.0108 25.8430 49.8110
X 59.0108 25.8430 50.5110
X 59.0108 25.8430 51.2110
X 59.0108 25.8430 51.9110
X 59.0108 25.8430 52.6110
X 59.0108 25.8430 53.3110
X 59.0108 25.8430 54.0110
X 59.0108 25.8430 54.7110
X 59.0108 25.8430 55.4110
X 59.0108 25.8430 56.1110
X 59.0108 25.8430 56.8110
X 59.0108 25.8430 57.5110
X 59.0108 25.8430 58.2110
X 59.0108 25.8430 58.9110
X 59.0108 25.8430 59.6110
X 59.0108 25.8430 60.3110
X 59.0108 25.8430 61.0110
X 59.0108 25.8430 61.7110
X 59.0108 25.8430 62.4110
X 59.0108 25.8430 63.1110
X 59.7108 25.8430 47.7110
X 59.7108 25.8430 48.4110
X 59.7108 25.8430 49.1110
X 59.7108 25.8430 49.8110
X 59.7108 25.8430 50.5110
X 59.7108 25.8430 51.2110
X 59.7108 25.8430 51.9110
X 59.7108 25.8430 52.6110
X 59.7108 25.8430 53.3110
X 59.7108 25.8430 54.0110
X 59.7108 25.8430 54.7110
X 59.7108 25.8430 55.4110
X 59.7108 25.8430 56.1110
X 59.7108 25.8430 56.8110
X 59.7108 25.8430 57.5110
X 59.7108 25.8430 58.2110
X 59.7108 25.8430 58.9110
X 59.7108 25.8430 59.6110
X 59.7108 25.8430 60.3110
X 59.7108 25.8430 61.0110
X 59.7108 25.8430 61.7110
X 59.7108 25.8430 62.4110
X 59.7108 25.8430 63.1110
X 60.4108 25.8430 47.0110
X 60.4108 25.8430 47.7110
X 60.4108 25.8430 48.4110
X 60.4108 25.8430 49.1110
X 60.4108 25.8430 49.8110
X 60.4108 25.8430 50.5110
X 60.4108 25.8430 51.2110
X 60.4108 25.8430 51.9110
X 60.4108 25.8430 52.6110
X 60.4108 25.8430 53.3110
X 60.4108 25.8430 54.0110
X 60.4108 25.8430 54.7110
X 60.4108 25.8430 55.4110
X 60.4108 25.8430 56.1110
X 60.4108 25.8430 56.8110
X 60.4108 25.8430 57.5110
X 60.4108 25.8430 58.2110
X 60.4108 25.8430 58.9110
X 60.4108 25.8430 59.6110
X 60.4108 25.8430 60.3110
X 60.4108 25.8430 61.0110
X 60.4108 25.8430 61.7110
X 60.4108 25.8430 62.4110
X 60.4108 25.8430 63.1110
X 61.1108 25.8430 47.0110
X 61.1108 25.8430 47.7110
X 61.1108 25.8430 48.4110
X 61.1108 25.8430 49.1110
X 61.1108 25.8430 49.8110
X 61.1108 25.8430 50.5110
X 61.1108 25.8430 51.2110
X 61.1108 25.8430 51.9110
X 61.1108 25.8430 52.6110
X 61.1108 25.8430 53.3110
X 61.1108 25.8430 54.0110
X 61.1108 25.8430 54.7110
X 61.1108 25.8430 55.4110
X 61.1108 25.8430 56.1110
X 61.1108 25.8430 56.8110
X 61.1108 25.8430 57.5110
X 61.1108 25.8430 58.2110
X 61.1108 25.8430 58.9110
X 61.1108 25.8430 59.6110
X 61.1108 25.8430 60.3110
X 61.1108 25.8430 61.0110
X 61.1108 25.8430 61.7110
X 61.1108 25.8430 62.4110
X 61.1108 25.8430 63.1110
X 61.8108 25.8430 47.0110
X 61.8108 25.8430 47.7110
X 61.8108 25.8430 48.4110
X 61.8108 25.8430 49.1110
X 61.8108 25.8430 49.8110
X 61.8108 25.8430 50.5110
X 61.8108 25.8430 51.2110
X 61.8108 25.8430 51.9110
X 61.8108 25.8430 52.6110
X 61.8108 25.8430 53.3110
X 61.8108 25.8430 54.0110
X 61.8108 25.8430 54.7110
X 61.8108 25.8430 55.4110
X 61.8108 25.8430 56.1110
X 61.8108 25.8430 56.8110
X 61.8108 25.8430 57.5110
X 61.8108 25.8430 58.2110
X 61.8108 25.8430 58.9110
X 61.8108 25.8430 59.6110
X 61.8108 25.8430 60.3110
X 61.8108 25.8430 61.0110
X 61.8108 25.8430 61.7110
X 61.8108 25.8430 62.4110
X 61.8108 25.8430 63.1110
X 62.5108 25.8430 47.0110
X 62.5108 25.8430 47.7110
X 62.5108 25.8430 48.4110
X 62.5108 25.8430 49.1110
X 62.5108 25.8430 49.8110
X 62.5108 25.8430 50.5110
X 62.5108 25.8430 51.2110
X 62.5108 25.8430 51.9110
X 62.5108 25.8430 52.6110
X 62.5108 25.8430 53.3110
X 62.5108 25.8430 54.0110
X 62.5108 25.8430 54.7110
X 62.5108 25.8430 55.4110
X 62.5108 25.8430 56.1110
X 62.5108 25.8430 56.8110
X 62.5108 25.8430 57.5110
X 62.5108 25.8430 58.2110
X 62.5108 25.8430 58.9110
X 62.5108 25.8430 59.6110
X 62.5108 25.8430 60.3110
X 62.5108 25.8430 61.0110
X 62.5108 25.8430 61.7110
X 62.5108 25.8430 62.4110
X 63.2108 25.8430 47.7110
X 63.2108 25.8430 48.4110
X 63.2108 25.8430 49.1110
X 63.2108 25.8430 49.8110
X 63.2108 25.8430 50.5110
X 63.2108 25.8430 51.2110
X 63.2108 25.8430 51.9110
X 63.2108 25.8430 52.6110
X 63.2108 25.8430 53.3110
X 63.2108 25.8430 54.0110
X 63.2108 25.8430 54.7110
X 63.2108 25.8430 55.4110
X 63.2108 25.8430 56.1110
X 63.2108 25.8430 56.8110
X 63.2108 25.8430 57.5110
X 63.2108 25.8430 58.2110
X 63.2108 25.8430 58.9110
X 63.2108 25.8430 59.6110
X 63.2108 25.8430 60.3110
X 63.2108 25.8430 61.0110
X 63.2108 25.8430 61.7110
X 63.2108 25.8430 62.4110
X 63.9108 25.8430 47.7110
X 63.9108 25.8430 48.4110
X 63.9108 25.8430 49.1110
X 63.9108 25.8430 49.8110
X 63.9108 25.8430 50.5110
X 63.9108 25.8430 51.2110
X 63.9108 25.8430 51.9110
X 63.9108 25.8430 52.6110
X 63.9108 25.8430 53.3110
X 63.9108 25.8430 54.0110
X 63.9108 25.8430 54.7110
X 63.9108 25.8430 55.4110
X 63.9108 25.8430 56.1110
X 63.9108 25.8430 56.8110
X 63.9108 25.8430 57.5110
X 63.9108 25.8430 58.2110
X 63.9108 25.8430 58.9110
X 63.9108 25.8430 59.6110
X 63.9108 25.8430 60.3110
X 63.9108 25.8430 61.0110
X 63.9108 25.8430 61.7110
X 64.6108 25.8430 47.7110
X 64.6108 25.8430 48.4110
X 64.6108 25.8430 49.1110
X 64.6108 25.8430 49.8110
X 64.6108 25.8430 50.5110
X 64.6108 25.8430 51.2110
X 64.6108 25.8430 51.9110
X 64.6108 25.8430 52.6110
X 64.6108 25.8430 53.3110
X 64.6108 25.8430 54.0110
X 64.6108 25.8430 54.7110
X 64.6108 25.8430 55.4110
X 64.6108 25.8430 56.1110
X 64.6108 25.8430 56.8110
X 64.6108 25.8430 57.5110
X 64.6108 25.8430 58.2110
X 64.6108 25.8430 58.9110
X 64.6108 25.8430 59.6110
X 64.6108 25.8430 60.3110
X 64.6108 25.8430 61.0110
X 64.6108 25.8430 61.7110
X 65.3108 25.8430 48.4110
X 65.3108 25.8430 49.1110
X 65.3108 25.8430 49.8110
X 65.3108 25.8430 50.5110
X 65.3108 25.8430 51.2110
X 65.3108 25.8430 51.9110
X 65.3108 25.8430 52.6110
X 65.3108 25.8430 53.3110
X 65.3108 25.8430 54.0110
X 65.3108 25.8430 54.7110
X 65.3108 25.8430 55.4110
X 65.3108 25.8430 56.1110
X 65.3108 25.8430 56.8110
X 65.3108 25.8430 57.5110
X 65.3108 25.8430 58.2110
X 65.3108 25.8430 58.9110
X 65.3108 25.8430 59.6110
X 65.3108 25.8430 60.3110
X 65.3108 25.8430 61.0110
X 66.0108 25.8430 49.1110
X 66.0108 25.8430 49.8110
X 66.0108 25.8430 50.5110
X 66.0108 25.8430 51.2110
X 66.0108 25.8430 51.9110
X 66.0108 25.8430 52.6110
X 66.0108 25.8430 53.3110
X 66.0108 25.8430 54.0110
X 66.0108 25.8430 54.7110
X 66.0108 25.8430 55.4110
X 66.0108 25.8430 56.1110
X 66.0108 25.8430 56.8110
X 66.0108 25.8430 57.5110
X 66.0108 25.8430 58.2110
X 66.0108 25.8430 58.9110
X 66.0108 25.8430 59.6110
X 66.0108 25.8430 60.3110
X 66.7108 25.8430 49.8110
X 66.7108 25.8430 50.5110
X 66.7108 25.8430 51.2110
X 66.7108 25.8430 51.9110
X 66.7108 25.8430 52.6110
X 66.7108 25.8430 53.3110
X 66.7108 25.8430 54.0110
X 66.7108 25.8430 54.7110
X 66.7108 25.8430 55.4110
X 66.7108 25.8430 56.1110
X 66.7108 25.8430 56.8110
X 66.7108 25.8430 57.5110
X 66.7108 25.8430 58.2110
X 66.7108 25.8430 58.9110
X 66.7108 25.8430 59.6110
X 67.4108 25.8430 51.2110
X 67.4108 25.8430 51.9110
X 67.4108 25.8430 52.6110
X 67.4108 25.8430 53.3110
X 67.4108 25.8430 54.0110
X 67.4108 25.8430 54.7110
X 67.4108 25.8430 55.4110
X 67.4108 25.8430 56.1110
X 67.4108 25.8430 56.8110
X 67.4108 25.8430 57.5110
X 67.4108 25.8430 58.2110
X 67.4108 25.8430 58.9110
X 68.1108 25.8430 53.3110
X 68.1108 25.8430 54.0110
X 68.1108 25.8430 54.7110
X 68.1108 25.8430 55.4110
X 68.1108 25.8430 56.1110
X 68.1108 25.8430 56.8110
X 68.1108 25.8430 57.5110
X 48.5108 26.5430 53.3110
X 48.5108 26.5430 54.0110
X 48.5108 26.5430 54.7110
X 48.5108 26.5430 55.4110
X 48.5108 26.5430 56.1110
X 48.5108 26.5430 56.8110
X 49.2108 26.5430 51.9110
X 49.2108 26.5430 52.6110
X 49.2108 26.5430 53.3110
X 49.2108 26.5430 54.0110
X 49.2108 26.5430 54.7110
X 49.2108 26.5430 55.4110
X 49.2108 26.5430 56.1110
X 49.2108 26.5430 56.8110
X 49.2108 26.5430 57.5110
X 49.2108 26.5430 58.2110
X 49.9108 26.5430 51.2110
X 49.9108 26.5430 51.9110
X 49.9108 26.5430 52.6110
X 49.9108 26.5430 53.3110
X 49.9108 26.5430 54.0110
X 49.9108 26.5430 54.7110
X 49.9108 26.5430 55.4110
X 49.9108 26.5430 56.1110
X 49.9108 26.5430 56.8110
X 49.9108 26.5430 57.5110
X 49.9108 26.5430 58.2110
X 49.9108 26.5430 58.9110
X 49.9108 26.5430 59.6110
X 50.6108 26.5430 49.8110
X 50.6108 26.5430 50.5110
X 50.6108 26.5430 51.2110
X 50.6108 26.5430 51.9110
X 50.6108 26.5430 52.6110
X 50.6108 26.5430 53.3110
X 50.6108 26.5430 54.0110
X 50.6108 26.5430 54.7110
X 50.6108 26.5430 55.4110
X 50.6108 26.5430 56.1110
X 50.6108 26.5430 56.8110
X 50.6108 26.5430 57.5110
X 50.6108 26.5430 58.2110
X 50.6108 26.5430 58.9110
X 50.6108 26.5430 59.6110
X 50.6108 26.5430 60.3110
X 51.3108 26.5430 49.8110
X 51.3108 26.5430 50.5110
X 51.3108 26.5430 51.2110
X 51.3108 26.5430 51.9110
X 51.3108 26.5430 52.6110
X 51.3108 26.5430 53.3110
X 51.3108 26.5430 54.0110
X 51.3108 26.5430 54.7110
X 51.3108 26.5430 55.4110
X 51.3108 26.5430 56.1110
X 51.3108 26.5430 56.8110
X 51.3108 26.5430 57.5110
X 51.3108 26.5430 58.2110
X 51.3108 26.5430 58.9110
X 51.3108 26.5430 59.6110
X 51.3108 26.5430 60.3110
X 51.3108 26.5430 61.0110
X 52.0108 26.5430 49.1110
X 52.0108 26.5430 49.8110
X 52.0108 26.5430 50.5110
X 52.0108 26.5430 51.2110
X 52.0108 26.5430 51.9110
X 52.0108 26.5430 52.6110
X 52.0108 26.5430 53.3110
X 52.0108 26.5430 54.0110
X 52.0108 26.5430 54.7110
X 52.0108 26.5430 55.4110
X 52.0108 26.5430 56.1110
X 52.0108 26.5430 56.8110
X 52.0108 26.5430 57.5110
X 52.0108 26.5430 58.2110
X 52.0108 26.5430 58.9110
X 52.0108 26.5430 59.6110
X 52.0108 26.5430 60.3110
X 52.0108 26.5430 61.0110
X 52.0108 26.5430 61.7110
X 52.7108 26.5430 49.1110
X 52.7108 26.5430 49.8110
X 52.7108 26.5430 50.5110
X 52.7108 26.5430 51.2110
X 52.7108 26.5430 51.9110
X 52.7108 26.5430 52.6110
X 52.7108 26.5430 53.3110
X 52.7108 26.5430 54.0110
X 52.7108 26.5430 54.7110
X 52.7108 26.5430 55.4110
X 52.7108 26.5430 56.1110
X 52.7108 26.5430 56.8110
X 52.7108 26.5430 57.5110
X 52.7108 26.5430 58.2110
X 52.7108 26.5430 58.9110
X 52.7108 26.5430 59.6110
X 52.7108 26.5430 60.3110
X 52.7108 26.5430 61.0110
X 52.7108 26.5430 61.7110
X 52.7108 26.5430 62.4110
X 53.4108 26.5430 48.4110
X 53.4108 26.5430 49.1110
X 53.4108 26.5430 49.8110
X 53.4108 26.5430 50.5110
X 53.4108 26.5430 51.2110
X 53.4108 26.5430 51.9110
X 53.4108 26.5430 52.6110
X 53.4108 26.5430 53.3110
X 53.4108 26.5430 54.0110
X 53.4108 26.5430 54.7110
X 53.4108 26.5430 55.4110
X 53.4108 26.5430 56.1110
X 53.4108 26.5430 56.8110
X 53.4108 26.5430 57.5110
X 53.4108 26.5430 58.2110
X 53.4108 26.5430 58.9110
X 53.4108 26.5430 59.6110
X 53.4108 26.5430 60.3110
X 53.4108 26.5430 61.0110
X 53.4108 26.5430 61.7110
X 53.4108 26.5430 62.4110
X 54.1108 26.5430 48.4110
X 54.1108 26.5430 49.1110
X 54.1108 26.5430 49.8110
X 54.1108 26.5430 50.5110
X 54.1108 26.5430 51.2110
X 54.1108 26.5430 51.9110
X 54.1108 26.5430 52.6110
X 54.1108 26.5430 53.3110
X 54.1108 26.5430 54.0110
X 54.1108 26.5430 54.7110
X 54.1108 26.5430 55.4110
X 54.1108 26.5430 56.1110
X 54.1108 26.5430 56.8110
X 54.1108 26.5430 57.5110
X 54.1108 26.5430 58.2110
X 54.1108 26.5430 58.9110
X 54.1108 26.5430 59.6110
X 54.1108 26.5430 60.3110
X 54.1108 26.5430 61.0110
X 54.1108 26.5430 61.7110
X 54.1108 26.5430 62.4110
X 54.1108 26.5430 63.1110
X 54.8108 26.5430 47.7110
X 54.8108 26.5430 48.4110
X 54.8108 26.5430 49.1110
X 54.8108 26.5430 49.8110
X 54.8108 26.5430 50.5110
X 54.8108 26.5430 51.2110
X 54.8108 26.5430 51.9110
X 54.8108 26.5430 52.6110
X 54.8108 26.5430 53.3110
X 54.8108 26.5430 54.0110
X 54.8108 26.5430 54.7110
X 54.8108 26.5430 55.4110
X 54.8108 26.5430 56.1110
X 54.8108 26.5430 56.8110
X 54.8108 26.5430 57.5110
X 54.8108 26.5430 58.2110
X 54.8108 26.5430 58.9110
X 54.8108 26.5430 59.6110
X 54.8108 26.5430 60.3110
X 54.8108 26.5430 61.0110
X 54.8108 26.5430 61.7110
X 54.8108 26.5430 62.4110
X 54.8108 26.5430 63.1110
X 55.5108 26.5430 47.7110
X 55.5108 26.5430 48.4110
X 55.5108 26.5430 49.1110
X 55.5108 26.5430 49.8110
X 55.5108 26.5430 50.5110
X 55.5108 26.5430 51.2110
X 55.5108 26.5430 51.9110
X 55.5108 26.5430 52.6110
X 55.5108 26.5430 53.3110
X 55.5108 26.5430 54.0110
X 55.5108 26.5430 54.7110
X 55.5108 26.5430 55.4110
X 55.5108 26.5430 56.1110
X 55.5108 26.5430 56.8110
X 55.5108 26.5430 57.5110
X 55.5108 26.5430 58.2110
X 55.5108 26.5430 58.9110
X 55.5108 26.5430 59.6110
X 55.5108 26.5430 60.3110
X 55.5108 26.5430 61.0110
X 55.5108 26.5430 61.7110
X 55.5108 26.5430 62.4110
X 55.5108 26.5430 63.1110
X 56.2108 26.5430 47.7110
X 56.2108 26.5430 48.4110
X 56.2108 26.5430 49.1110
X 56.2108 26.5430 49.8110
X 56.2108 26.5430 50.5110
X 56.2108 26.5430 51.2110
X 56.2108 26.5430 51.9110
X 56.2108 26.5430 52.6110
X 56.2108 26.5430 53.3110
X 56.2108 26.5430 54.0110
X 56.2108 26.5430 54.7110
X 56.2108 26.5430 55.4110
X 56.2108 26.5430 56.1110
X 56.2108 26.5430 56.8110
X 56.2108 26.5430 57.5110
X 56.2108 26.5430 58.2110
X 56.2108 26.5430 58.9110
X 56.2108 26.5430 59.6110
X 56.2108 26.5430 60.3110
X 56.2108 26.5430 61.0110
X 56.2108 26.5430 61.7110
X 56.2108 26.5430 62.4110
X 56.2108 26.5430 63.1110
X 56.2108 26.5430 63.8110
X 56.9108 26.5430 47.7110
X 56.9108 26.5430 48.4110
X 56.9108 26.5430 49.1110
X 56.9108 26.5430 49.8110
X 56.9108 26.5430 50.5110
X 56.9108 26.5430 51.2110
X 56.9108 26.5430 51.9110
X 56.9108 26.5430 52.6110
X 56.9108 26.5430 53.3110
X 56.9108 26.5430 54.0110
X 56.9108 26.5430 54.7110
X 56.9108 26.5430 55.4110
X 56.9108 26.5430 56.1110
X 56.9108 26.5430 56.8110
X 56.9108 26.5430 57.5110
X 56.9108 26.5430 58.2110
X 56.9108 26.5430 58.9110
X 56.9108 26.5430 59.6110
X 56.9108 26.5430 60.3110
X 56.9108 26.5430 61.0110
X 56.9108 26.5430 61.7110
X 56.9108 26.5430 62.4110
X 56.9108 26.5430 63.1110
X 56.9108 26.5430 63.8110
X 57.6108 26.5430 47.7110
X 57.6108 26.5430 48.4110
X 57.6108 26.5430 49.1110
X 57.6108 26.5430 49.8110
X 57.6108 26.5430 50.5110
X 57.6108 26.5430 51.2110
X 57.6108 26.5430 51.9110
X 57.6108 26.5430 52.6110
X 57.6108 26.5430 53.3110
X 57.6108 26.5430 54.0110
X 57.6108 26.5430 54.7110
X 57.6108 26.5430 55.4110
X 57.6108 26.5430 56.1110
X 57.6108 26.5430 56.8110
X 57.6108 26.5430 57.5110
X 57.6108 26.5430 58.2110
X 57.6108 26.5430 58.9110
X 57.6108 26.5430 59.6110
X 57.6108 26.5430 60.3110
X 57.6108 26.5430 61.0110
X 57.6108 26.5430 61.7110
X 57.6108 26.5430 62.4110
X 57.6108 26.5430 63.1110
X 57.6108 26.5430 63.8110
X 58.3108 26.5430 47.7110
X 58.3108 26.5430 48.4110
X 58.3108 26.5430 49.1110
X 58.3108 26.5430 49.8110
X 58.3108 26.5430 50.5110
X 58.3108 26.5430 51.2110
X 58.3108 26.5430 51.9110
X 58.3108 26.5430 52.6110
X 58.3108 26.5430 53.3110
X 58.3108 26.5430 54.0110
X 58.3108 26.5430 54.7110
X 58.3108 26.5430 55.4110
X 58.3108 26.5430 56.1110
X 58.3108 26.5430 56.8110
X 58.3108 26.5430 57.5110
X 58.3108 26.5430 58.2110
X 58.3108 26.5430 58.9110
X 58.3108 26.5430 59.6110
X 58.3108 26.5430 60.3110
X 58.3108 26.5430 61.0110
X 58.3108 26.5430 61.7110
X 58.3108 26.5430 62.4110
X 58.3108 26.5430 63.1110
X 58.3108 26.5430 63.8110
X 59.0108 26.5430 47.0110
X 59.0108 26.5430 47.7110
X 59.0108 26.5430 48.4110
X 59.0108 26.5430 49.1110
X 59.0108 26.5430 49.8110
X 59.0108 26.5430 50.5110
X 59.0108 26.5430 51.2110
X 59.0108 26.5430 51.9110
X 59.0108 26.5430 52.6110
X 59.0108 26.5430 53.3110
X 59.0108 26.5430 54.0110
X 59.0108 26.5430 54.7110
X 59.0108 26.5430 55.4110
X 59.0108 26.5430 56.1110
X 59.0108 26.5430 56.8110
X 59.0108 26.5430 57.5110
X 59.0108 26.5430 58.2110
X 59.0108 26.5430 58.9110
X 59.0108 26.5430 59.6110
X 59.0108 26.5430 60.3110
X 59.0108 26.5430 61.0110
X 59.0108 26.5430 61.7110
X 59.0108 26.5430 62.4110
X 59.0108 26.5430 63.1110
X 59.0108 26.5430 63.8110
X 59.7108 26.5430 47.0110
X 59.7108 26.5430 47.7110
X 59.7108 26.5430 48.4110
X 59.7108 26.5430 49.1110
X 59.7108 26.5430 49.8110
X 59.7108 26.5430 50.5110
X 59.7108 26.5430 51.2110
X 59.7108 26.5430 51.9110
X 59.7108 26.5430 52.6110
X 59.7108 26.5430 53.3110
X 59.7108 26.5430 54.0110
X 59.7108 26.5430 54.7110
X 59.7108 26.5430 55.4110
X 59.7108 26.5430 56.1110
X 59.7108 26.5430 56.8110
X 59.7108 26.5430 57.5110
X 59.7108 26.5430 58.2110
X 59.7108 26.5430 58.9110
X 59.7108 26.5430 59.6110
X 59.7108 26.5430 60.3110
X 59.7108 26.5430 61.0110
X 59.7108 26.5430 61.7110
X 59.7108 26.5430 62.4110
X 59.7108 26.5430 63.1110
X 59.7108 26.5430 63.8110
X 60.4108 26.5430 47.0110
X 60.4108 26.5430 47.7110
X 60.4108 26.5430 48.4110
X 60.4108 26.5430 49.1110
X 60.4108 26.5430 49.8110
X 60.4108 26.5430 50.5110
X 60.4108 26.5430 51.2110
X 60.4108 26.5430 51.9110
X 60.4108 26.5430 52.6110
X 60.4108 26.5430 53.3110
X 60.4108 26.5430 54.0110
X 60.4108 26.5430 54.7110
X 60.4108 26.5430 55.4110
X 60.4108 26.5430 56.1110
X 60.4108 26.5430 56.8110
X 60.4108 26.5430 57.5110
X 60.4108 26.5430 58.2110
X 60.4108 26.5430 58.9110
X 60.4108 26.5430 59.6110
X 60.4108 26.5430 60.3110
X 60.4108 26.5430 61.0110
X 60.4108 26.5430 61.7110
X 60.4108 26.5430 62.4110
X 60.4108 26.5430 63.1110
X 60.4108 26.5430 63.8110
X 61.1108 26.5430 46.3110
X 61.1108 26.5430 47.0110
X 61.1108 26.5430 47.7110
X 61.1108 26.5430 48.4110
X 61.1108 26.5430 49.1110
X 61.1108 26.5430 49.8110
X 61.1108 26.5430 50.5110
X 61.1108 26.5430 51.2110
X 61.1108 26.5430 51.9110
X 61.1108 26.5430 52.6110
X 61.1108 26.5430 53.3110
X 61.1108 26.5430 54.0110
X 61.1108 26.5430 54.7110
X 61.1108 26.5430 55.4110
X 61.1108 26.5430 56.1110
X 61.1108 26.5430 56.8110
X 61.1108 26.5430 57.5110
X 61.1108 26.5430 58.2110
X 61.1108 26.5430 58.9110
X 61.1108 26.5430 59.6110
X 61.1108 26.5430 60.3110
X 61.1108 26.5430 61.0110
X 61.1108 26.5430 61.7110
X 61.1108 26.5430 62.4110
X 61.1108 26.5430 63.1110
X 61.1108 26.5430 63.8110
X 61.8108 26.5430 46.3110
X 61.8108 26.5430 47.0110
X 61.8108 26.5430 47.7110
X 61.8108 26.5430 48.4110
X 61.8108 26.5430 49.1110
X 61.8108 26.5430 49.8110
X 61.8108 26.5430 50.5110
X 61.8108 26.5430 51.2110
X 61.8108 26.5430 51.9110
X 61.8108 26.5430 52.6110
X 61.8108 26.5430 53.3110
X 61.8108 26.5430 54.0110
X 61.8108 26.5430 54.7110
X 61.8108 26.5430 55.4110
X 61.8108 26.5430 56.1110
X 61.8108 26.5430 56.8110
X 61.8108 26.5430 57.5110
X 61.8108 26.5430 58.2110
X 61.8108 26.5430 58.9110
X 61.8108 26.5430 59.6110
X 61.8108 26.5430 60.3110
X 61.8108 26.5430 61.0110
X 61.8108 26.5430 61.7110
X 61.8108 26.5430 62.4110
X 61.8108 26.5430 63.1110
X 62.5108 26.5430 47.0110
X 62.5108 26.5430 47.7110
X 62.5108 26.5430 48.4110
X 62.5108 26.5430 49.1110
X 62.5108 26.5430 49.8110
X 62.5108 26.5430 50.5110
X 62.5108 26.5430 51.2110
X 62.5108 26.5430 51.9110
X 62.5108 26.5430 52.6110
X 62.5108 26.5430 53.3110
X 62.5108 26.5430 54.0110
X 62.5108 26.5430 54.7110
X 62.5108 26.5430 55.4110
X 62.5108 26.5430 56.1110
X 62.5108 26.5430 56.8110
X 62.5108 26.5430 57.5110
X 62.5108 26.5430 58.2110
X 62.5108 26.5430 58.9110
X 62.5108 26.5430 59.6110
X 62.5108 26.5430 60.3110
X 62.5108 26.5430 61.0110
X 62.5108 26.5430 61.7110
X 62.5108 26.5430 62.4110
X 62.5108 26.5430 63.1110
X 63.2108 26.5430 47.0110
X 63.2108 26.5430 47.7110
X 63.2108 26.5430 48.4110
X 63.2108 26.5430 49.1110
X 63.2108 26.5430 49.8110
X 63.2108 26.5430 50.5110
X 63.2108 26.5430 51.2110
X 63.2108 26.5430 51.9110
X 63.2108 26.5430 52.6110
X 63.2108 26.5430 53.3110
X 63.2108 26.5430 54.0110
X 63.2108 26.5430 54.7110
X 63.2108 26.5430 55.4110
X 63.2108 26.5430 56.1110
X 63.2108 26.5430 56.8110
X 63.2108 26.5430 57.5110
X 63.2108 26.5430 58.2110
X 63.2108 26.5430 58.9110
X 63.2108 26.5430 59.6110
X 63.2108 26.5430 60.3110
X 63.2108 26.5430 61.0110
X 63.2108 26.5430 61.7110
X 63.2108 26.5430 62.4110
X 63.2108 26.5430 63.1110
X 63.9108 26.5430 47.0110
X 63.9108 26.5430 47.7110
X 63.9108 26.5430 48.4110
X 63.9108 26.5430 49.1110
X 63.9108 26.5430 49.8110
X 63.9108 26.5430 50.5110
X 63.9108 26.5430 51.2110
X 63.9108 26.5430 51.9110
X 63.9108 26.5430 52.6110
X 63.9108 26.5430 53.3110
X 63.9108 26.5430 54.0110
X 63.9108 26.5430 54.7110
X 63.9108 26.5430 55.4110
X 63.9108 26.5430 56.1110
X 63.9108 26.5430 56.8110
X 63.9108 26.5430 57.5110
X 63.9108 26.5430 58.2110
X 63.9108 26.5430 58.9110
X 63.9108 26.5430 59.6110
X 63.9108 26.5430 60.3110
X 63.9108 26.5430 61.0110
X 63.9108 26.5430 61.7110
X 63.9108 26.5430 62.4110
X 64.6108 26.5430 47.0110
X 64.6108 26.5430 47.7110
X 64.6108 26.5430 48.4110
X 64.6108 26.5430 49.1110
X 64.6108 26.5430 49.8110
X 64.6108 26.5430 50.5110
X 64.6108 26.5430 51.2110
X 64.6108 26.5430 51.9110
X 64.6108 26.5430 52.6110
X 64.6108 26.5430 53.3110
X 64.6108 26.5430 54.0110
X 64.6108 26.5430 54.7110
X 64.6108 26.5430 55.4110
X 64.6108 26.5430 56.1110
X 64.6108 26.5430 56.8110
X 64.6108 26.5430 57.5110
X 64.6108 26.5430 58.2110
X 64.6108 26.5430 58.9110
X 64.6108 26.5430 59.6110
X 64.6108 26.5430 60.3110
X 64.6108 26.5430 61.0110
X 64.6108 26.5430 61.7110
X 65.3108 26.5430 47.7110
X 65.3108 26.5430 48.4110
X 65.3108 26.5430 49.1110
X 65.3108 26.5430 49.8110
X 65.3108 26.5430 50.5110
X 65.3108 26.5430 51.2110
X 65.3108 26.5430 51.9110
X 65.3108 26.5430 52.6110
X 65.3108 26.5430 53.3110
X 65.3108 26.5430 54.0110
X 65.3108 26.5430 54.7110
X 65.3108 26.5430 55.4110
X 65.3108 26.5430 56.1110
X 65.3108 26.5430 56.8110
X 65.3108 26.5430 57.5110
X 65.3108 26.5430 58.2110
X 65.3108 26.5430 58.9110
X 65.3108 26.5430 59.6110
X 65.3108 26.5430 60.3110
X 65.3108 26.5430 61.0110
X 65.3108 26.5430 61.7110
X 66.0108 26.5430 48.4110
X 66.0108 26.5430 49.1110
X 66.0108 26.5430 49.8110
X 66.0108 26.5430 50.5110
X 66.0108 26.5430 51.2110
X 66.0108 26.5430 51.9110
X 66.0108 26.5430 52.6110
X 66.0108 26.5430 53.3110
X 66.0108 26.5430 54.0110
X 66.0108 26.5430 54.7110
X 66.0108 26.5430 55.4110
X 66.0108 26.5430 56.1110
X 66.0108 26.5430 56.8110
X 66.0108 26.5430 57.5110
X 66.0108 26.5430 58.2110
X 66.0108 26.5430 58.9110
X 66.0108 26.5430 59.6110
X 66.0108 26.5430 60.3110
X 66.0108 26.5430 61.0110
X 66.7108 26.5430 49.1110
X 66.7108 26.5430 49.8110
X 66.7108 26.5430 50.5110
X 66.7108 26.5430 51.2110
X 66.7108 26.5430 51.9110
X 66.7108 26.5430 52.6110
X 66.7108 26.5430 53.3110
X 66.7108 26.5430 54.0110
X 66.7108 26.5430 54.7110
X 66.7108 26.5430 55.4110
X 66.7108 26.5430 56.1110
X 66.7108 26.5430 56.8110
X 66.7108 26.5430 57.5110
X 66.7108 26.5430 58.2110
X 66.7108 26.5430 58.9110
X 66.7108 26.5430 59.6110
X 66.7108 26.5430 60.3110
X 66.7108 26.5430 61.0110
X 67.4108 26.5430 49.8110
X 67.4108 26.5430 50.5110
X 67.4108 26.5430 51.2110
X 67.4108 26.5430 51.9110
X 67.4108 26.5430 52.6110
X 67.4108 26.5430 53.3110
X 67.4108 26.5430 54.0110
X 67.4108 26.5430 54.7110
X 67.4108 26.5430 55.4110
X 67.4108 26.5430 56.1110
X 67.4108 26.5430 56.8110
X 67.4108 26.5430 57.5110
X 67.4108 26.5430 58.2110
X 67.4108 26.5430 58.9110
X 67.4108 26.5430 59.6110
X 67.4108 26.5430 60.3110
X 68.1108 26.5430 51.2110
X 68.1108 26.5430 51.9110
X 68.1108 26.5430 52.6110
X 68.1108 26.5430 53.3110
X 68.1108 26.5430 54.0110
X 68.1108 26.5430 54.7110
X 68.1108 26.5430 55.4110
X 68.1108 26.5430 56.1110
X 68.1108 26.5430 56.8110
X 68.1108 26.5430 57.5110
X 68.1108 26.5430 58.2110
X 68.1108 26.5430 58.9110
X 68.8108 26.5430 53.3110
X 68.8108 26.5430 54.0110
X 68.8108 26.5430 54.7110
X 68.8108 26.5430 55.4110
X 68.8108 26.5430 56.1110
X 68.8108 26.5430 56.8110
X 68.8108 26.5430 57.5110
X 47.8108 27.2430 54.7110
X 47.8108 27.2430 55.4110
X 47.8108 27.2430 56.1110
X 48.5108 27.2430 51.9110
X 48.5108 27.2430 52.6110
X 48.5108 27.2430 53.3110
X 48.5108 27.2430 54.0110
X 48.5108 27.2430 54.7110
X 48.5108 27.2430 55.4110
X 48.5108 27.2430 56.1110
X 48.5108 27.2430 56.8110
X 48.5108 27.2430 57.5110
X 48.5108 27.2430 58.2110
X 49.2108 27.2430 51.2110
X 49.2108 27.2430 51.9110
X 49.2108 27.2430 52.6110
X 49.2108 27.2430 53.3110
X 49.2108 27.2430 54.0110
X 49.2108 27.2430 54.7110
X 49.2108 27.2430 55.4110
X 49.2108 27.2430 56.1110
X 49.2108 27.2430 56.8110
X 49.2108 27.2430 57.5110
X 49.2108 27.2430 58.2110
X 49.2108 27.2430 58.9110
X 49.9108 27.2430 49.8110
X 49.9108 27.2430 50.5110
X 49.9108 27.2430 51.2110
X 49.9108 27.2430 51.9110
X 49.9108 27.2430 52.6110
X 49.9108 27.2430 53.3110
X 49.9108 27.2430 54.0110
X 49.9108 27.2430 54.7110
X 49.9108 27.2430 55.4110
X 49.9108 27.2430 56.1110
X 49.9108 27.2430 56.8110
X 49.9108 27.2430 57.5110
X 49.9108 27.2430 58.2110
X 49.9108 27.2430 58.9110
X 49.9108 27.2430 59.6110
X 49.9108 27.2430 60.3110
X 50.6108 27.2430 49.8110
X 50.6108 27.2430 50.5110
X 50.6108 27.2430 51.2110
X 50.6108 27.2430 51.9110
X 50.6108 27.2430 52.6110
X 50.6108 27.2430 53.3110
X 50.6108 27.2430 54.0110
X 50.6108 27.2430 54.7110
X 50.6108 27.2430 55.4110
X 50.6108 27.2430 56.1110
X 50.6108 27.2430 56.8110
X 50.6108 27.2430 57.5110
X 50.6108 27.2430 58.2110
X 50.6108 27.2430 58.9110
X 50.6108 27.2430 59.6110
X 50.6108 27.2430 60.3110
X 50.6108 27.2430 61.0110
X 51.3108 27.2430 49.1110
X 51.3108 27.2430 49.8110
X 51.3108 27.2430 50.5110
X 51.3108 27.2430 51.2110
X 51.3108 27.2430 51.9110
X 51.3108 27.2430 52.6110
X 51.3108 27.2430 53.3110
X 51.3108 27.2430 54.0110
X 51.3108 27.2430 54.7110
X 51.3108 27.2430 55.4110
X 51.3108 27.2430 56.1110
X 51.3108 27.2430 56.8110
X 51.3108 27.2430 57.5110
X 51.3108 27.2430 58.2110
X 51.3108 27.2430 58.9110
X 51.3108 27.2430 59.6110
X 51.3108 27.2430 60.3110
X 51.3108 27.2430 61.0110
X 51.3108 27.2430 61.7110
X 52.0108 27.2430 48.4110
X 52.0108 27.2430 49.1110
X 52.0108 27.2430 49.8110
X 52.0108 27.2430 50.5110
X 52.0108 27.2430 51.2110
X 52.0108 27.2430 51.9110
X 52.0108 27.2430 52.6110
X 52.0108 27.2430 53.3110
X 52.0108 27.2430 54.0110
X 52.0108 27.2430 54.7110
X 52.0108 27.2430 55.4110
X 52.0108 27.2430 56.1110
X 52.0108 27.2430 56.8110
X 52.0108 27.2430 57.5110
X 52.0108 27.2430 58.2110
X 52.0108 27.2430 58.9110
X 52.0108 27.2430 59.6110
X 52.0108 27.2430 60.3110
X 52.0108 27.2430 61.0110
X 52.0108 27.2430 61.7110
X 52.0108 27.2430 62.4110
X 52.7108 27.2430 48.4110
X 52.7108 27.2430 49.1110
X 52.7108 27.2430 49.8110
X 52.7108 27.2430 50.5110
X 52.7108 27.2430 51.2110
X 52.7108 27.2430 51.9110
X 52.7108 27.2430 52.6110
X 52.7108 27.2430 53.3110
X 52.7108 27.2430 54.0110
X 52.7108 27.2430 54.7110
X 52.7108 27.2430 55.4110
X 52.7108 27.2430 56.1110
X 52.7108 27.2430 56.8110
X 52.7108 27.2430 57.5110
X 52.7108 27.2430 58.2110
X 52.7108 27.2430 58.9110
X 52.7108 27.2430 59.6110
X 52.7108 27.2430 60.3110
X 52.7108 27.2430 61.0110
X 52.7108 27.2430 61.7110
X 52.7108 27.2430 62.4110
X 53.4108 27.2430 47.7110
X 53.4108 27.2430 48.4110
X 53.4108 27.2430 49.1110
X 53.4108 27.2430 49.8110
X 53.4108 27.2430 50.5110
X 53.4108 27.2430 51.2110
X 53.4108 27.2430 51.9110
X 53.4108 27.2430 52.6110
X 53.4108 27.2430 53.3110
X 53.4108 27.2430 54.0110
X 53.4108 27.2430 54.7110
X 53.4108 27.2430 55.4110
X 53.4108 27.2430 56.1110
X 53.4108 27.2430 56.8110
X 53.4108 27.2430 57.5110
X 53.4108 27.2430 58.2110
X 53.4108 27.2430 58.9110
X 53.4108 27.2430 59.6110
X 53.4108 27.2430 60.3110
X 53.4108 27.2430 61.0110
X 53.4108 27.2430 61.7110
X 53.4108 27.2430 62.4110
X 53.4108 27.2430 63.1110
X 54.1108 27.2430 47.7110
X 54.1108 27.2430 48.4110
X 54.1108 27.2430 49.1110
X 54.1108 27.2430 49.8110
X 54.1108 27.2430 50.5110
X 54.1108 27.2430 51.2110
X 54.1108 27.2430 51.9110
X 54.1108 27.2430 52.6110
X 54.1108 27.2430 53.3110
X 54.1108 27.2430 54.0110
X 54.1108 27.2430 54.7110
X 54.1108 27.2430 55.4110
X 54.1108 27.2430 56.1110
X 54.1108 27.2430 56.8110
X 54.1108 27.2430 57.5110
X 54.1108 27.2430 58.2110
X 54.1108 27.2430 58.9110
X 54.1108 27.2430 59.6110
X 54.1108 27.2430 60.3110
X 54.1108 27.2430 61.0110
X 54.1108 27.2430 61.7110
X 54.1108 27.2430 62.4110
X 54.1108 27.2430 63.1110
X 54.1108 27.2430 63.8110
X 54.8108 27.2430 47.7110
X 54.8108 27.2430 48.4110
X 54.8108 27.2430 49.1110
X 54.8108 27.2430 49.8110
X 54.8108 27.2430 50.5110
X 54.8108 27.2430 51.2110
X 54.8108 27.2430 51.9110
X 54.8108 27.2430 52.6110
X 54.8108 27.2430 53.3110
X 54.8108 27.2430 54.0110
X 54.8108 27.2430 54.7110
X 54.8108 27.2430 55.4110
X 54.8108 27.2430 56.1110
X 54.8108 27.2430 56.8110
X 54.8108 27.2430 57.5110
X 54.8108 27.2430 58.2110
X 54.8108 27.2430 58.9110
X 54.8108 27.2430 59.6110
X 54.8108 27.2430 60.3110
X 54.8108 27.2430 61.0110
X 54.8108 27.2430 61.7110
X 54.8108 27.2430 62.4110
X 54.8108 27.2430 63.1110
X 54.8108 27.2430 63.8110
X 55.5108 27.2430 47.7110
X 55.5108 27.2430 48.4110
X 55.5108 27.2430 49.1110
X 55.5108 27.2430 49.8110
X 55.5108 27.2430 50.5110
X 55.5108 27.2430 51.2110
X 55.5108 27.2430 51.9110
X 55.5108 27.2430 52.6110
X 55.5108 27.2430 53.3110
X 55.5108 27.2430 54.0110
X 55.5108 27.2430 54.7110
X 55.5108 27.2430 55.4110
X 55.5108 27.2430 56.1110
X 55.5108 27.2430 56.8110
X 55.5108 27.2430 57.5110
X 55.5108 27.2430 58.2110
X 55.5108 27.2430 58.9110
X 55.5108 27.2430 59.6110
X 55.5108 27.2430 60.3110
X 55.5108 27.2430 61.0110
X 55.5108 27.2430 61.7110
X 55.5108 27.2430 62.4110
X 55.5108 27.2430 63.1110
X 55.5108 27.2430 63.8110
X 56.2108 27.2430 47.7110
X 56.2108 27.2430 48.4110
X 56.2108 27.2430 49.1110
X 56.2108 27.2430 49.8110
X 56.2108 27.2430 50.5110
X 56.2108 27.2430 51.2110
X 56.2108 27.2430 51.9110
X 56.2108 27.2430 52.6110
X 56.2108 27.2430 53.3110
X 56.2108 27.2430 54.0110
X 56.2108 27.2430 54.7110
X 56.2108 27.2430 55.4110
X 56.2108 27.2430 56.1110
X 56.2108 27.2430 56.8110
X 56.2108 27.2430 57.5110
X 56.2108 27.2430 58.2110
X 56.2108 27.2430 58.9110
X 56.2108 27.2430 59.6110
X 56.2108 27.2430 60.3110
X 56.2108 27.2430 61.0110
X 56.2108 27.2430 61.7110
X 56.2108 27.2430 62.4110
X 56.2108 27.2430 63.1110
X 56.2108 27.2430 63.8110
X 56.9108 27.2430 47.7110
X 56.9108 27.2430 48.4110
X 56.9108 27.2430 49.1110
X 56.9108 27.2430 49.8110
X 56.9108 27.2430 50.5110
X 56.9108 27.2430 51.2110
X 56.9108 27.2430 51.9110
X 56.9108 27.2430 52.6110
X 56.9108 27.2430 53.3110
X 56.9108 27.2430 54.0110
X 56.9108 27.2430 54.7110
X 56.9108 27.2430 55.4110
X 56.9108 27.2430 56.1110
X 56.9108 27.2430 56.8110
X 56.9108 27.2430 57.5110
X 56.9108 27.2430 58.2110
X 56.9108 27.2430 58.9110
X 56.9108 27.2430 59.6110
X 56.9108 27.2430 60.3110
X 56.9108 27.2430 61.0110
X 56.9108 27.2430 61.7110
X 56.9108 27.2430 62.4110
X 56.9108 27.2430 63.1110
X 56.9108 27.2430 63.8110
X 57.6108 27.2430 47.0110
X 57.6108 27.2430 47.7110
X 57.6108 27.2430 48.4110
X 57.6108 27.2430 49.1110
X 57.6108 27.2430 49.8110
X 57.6108 27.2430 50.5110
X 57.6108 27.2430 51.2110
X 57.6108 27.2430 51.9110
X 57.6108 27.2430 52.6110
X 57.6108 27.2430 53.3110
X 57.6108 27.2430 54.0110
X 57.6108 27.2430 54.7110
X 57.6108 27.2430 55.4110
X 57.6108 27.2430 56.1110
X 57.6108 27.2430 56.8110
X 57.6108 27.2430 57.5110
X 57.6108 27.2430 58.2110
X 57.6108 27.2430 58.9110
X 57.6108 27.2430 59.6110
X 57.6108 27.2430 60.3110
X 57.6108 27.2430 61.0110
X 57.6108 27.2430 61.7110
X 57.6108 27.2430 62.4110
X 57.6108 27.2430 63.1110
X 57.6108 27.2430 63.8110
X 58.3108 27.2430 47.0110
X 58.3108 27.2430 47.7110
X 58.3108 27.2430 48.4110
X 58.3108 27.2430 49.1110
X 58.3108 27.2430 49.8110
X 58.3108 27.2430 50.5110
X 58.3108 27.2430 51.2110
X 58.3108 27.2430 51.9110
X 58.3108 27.2430 52.6110
X 58.3108 27.2430 53.3110
X 58.3108 27.2430 54.0110
X 58.3108 27.2430 54.7110
X 58.3108 27.2430 55.4110
X 58.3108 27.2430 56.1110
X 58.3108 27.2430 56.8110
X 58.3108 27.2430 57.5110
X 58.3108 27.2430 58.2110
X 58.3108 27.2430 58.9110
X 58.3108 27.2430 59.6110
X 58.3108 27.2430 60.3110
X 58.3108 27.2430 61.0110
X 58.3108 27.2430 61.7110
X 58.3108 27.2430 62.4110
X 58.3108 27.2430 63.1110
X 58.3108 27.2430 63.8110
X 59.0108 27.2430 46.3110
X 59.0108 27.2430 47.0110
X 59.0108 27.2430 47.7110
X 59.0108 27.2430 48.4110
X 59.0108 27.2430 49.1110
X 59.0108 27.2430 49.8110
X 59.0108 27.2430 50.5110
X 59.0108 27.2430 51.2110
X 59.0108 27.2430 51.9110
X 59.0108 27.2430 52.6110
X 59.0108 27.2430 53.3110
X 59.0108 27.2430 54.0110
X 59.0108 27.2430 54.7110
X 59.0108 27.2430 55.4110
X 59.0108 27.2430 56.1110
X 59.0108 27.2430 56.8110
X 59.0108 27.2430 57.5110
X 59.0108 27.2430 58.2110
X 59.0108 27.2430 58.9110
X 59.0108 27.2430 59.6110
X 59.0108 27.2430 60.3110
X 59.0108 27.2430 61.0110
X 59.0108 27.2430 61.7110
X 59.0108 27.2430 62.4110
X 59.0108 27.2430 63.1110
X 59.0108 27.2430 63.8110
X 59.7108 27.2430 46.3110
X 59.7108 27.2430 47.0110
X 59.7108 27.2430 47.7110
X 59.7108 27.2430 48.4110
X 59.7108 27.2430 49.1110
X 59.7108 27.2430 49.8110
X 59.7108 27.2430 50.5110
X 59.7108 27.2430 51.2110
X 59.7108 27.2430 51.9110
X 59.7108 27.2430 52.6110
X 59.7108 27.2430 53.3110
X 59.7108 27.2430 54.0110
X 59.7108 27.2430 54.7110
X 59.7108 27.2430 55.4110
X 59.7108 27.2430 56.1110
X 59.7108 27.2430 56.8110
X 59.7108 27.2430 57.5110
X 59.7108 27.2430 58.2110
X 59.7108 27.2430 58.9110
X 59.7108 27.2430 59.6110
X 59.7108 27.2430 60.3110
X 59.7108 27.2430 61.0110
X 59.7108 27.2430 61.7110
X 59.7108 27.2430 62.4110
X 59.7108 27.2430 63.1110
X 59.7108 27.2430 63.8110
X 59.7108 27.2430 64.5110
X 60.4108 27.2430 46.3110
X 60.4108 27.2430 47.0110
X 60.4108 27.2430 47.7110
X 60.4108 27.2430 48.4110
X 60.4108 27.2430 49.1110
X 60.4108 27.2430 49.8110
X 60.4108 27.2430 50.5110
X 60.4108 27.2430 51.2110
X 60.4108 27.2430 51.9110
X 60.4108 27.2430 52.6110
X 60.4108 27.2430 53.3110
X 60.4108 27.2430 54.0110
X 60.4108 27.2430 54.7110
X 60.4108 27.2430 55.4110
X 60.4108 27.2430 56.1110
X 60.4108 27.2430 56.8110
X 60.4108 27.2430 57.5110
X 60.4108 27.2430 58.2110
X 60.4108 27.2430 58.9110
X 60.4108 27.2430 59.6110
X 60.4108 27.2430 60.3110
X 60.4108 27.2430 61.0110
X 60.4108 27.2430 61.7110
X 60.4108 27.2430 62.4110
X 60.4108 27.2430 63.1110
X 60.4108 27.2430 63.8110
X 61.1108 27.2430 46.3110
X 61.1108 27.2430 47.0110
X 61.1108 27.2430 47.7110
X 61.1108 27.2430 48.4110
X 61.1108 27.2430 49.1110
X 61.1108 27.2430 49.8110
X 61.1108 27.2430 50.5110
X 61.1108 27.2430 51.2110
X 61.1108 27.2430 51.9110
X 61.1108 27.2430 52.6110
X 61.1108 27.2430 53.3110
X 61.1108 27.2430 54.0110
X 61.1108 27.2430 54.7110
X 61.1108 27.2430 55.4110
X 61.1108 27.2430 56.1110
X 61.1108 27.2430 56.8110
X 61.1108 27.2430 57.5110
X 61.1108 27.2430 58.2110
X 61.1108 27.2430 58.9110
X 61.1108 27.2430 59.6110
X 61.1108 27.2430 60.3110
X 61.1108 27.2430 61.0110
X 61.1108 27.2430 61.7110
X 61.1108 27.2430 62.4110
X 61.1108 27.2430 63.1110
X 61.1108 27.2430 63.8110
X 61.8108 27.2430 46.3110
X 61.8108 27.2430 47.0110
X 61.8108 27.2430 47.7110
X 61.8108 27.2430 48.4110
X 61.8108 27.2430 49.1110
X 61.8108 27.2430 49.8110
X 61.8108 27.2430 50.5110
X 61.8108 27.2430 51.2110
X 61.8108 27.2430 51.9110
X 61.8108 27.2430 52.6110
X 61.8108 27.2430 53.3110
X 61.8108 27.2430 54.0110
X 61.8108 27.2430 54.7110
X 61.8108 27.2430 55.4110
X 61.8108 27.2430 56.1110
X 61.8108 27.2430 56.8110
X 61.8108 27.2430 57.5110
X 61.8108 27.2430 58.2110
X 61.8108 27.2430 58.9110
X 61.8108 27.2430 59.6110
X 61.8108 27.2430 60.3110
X 61.8108 27.2430 61.0110
X 61.8108 27.2430 61.7110
X 61.8108 27.2430 62.4110
X 61.8108 27.2430 63.1110
X 61.8108 27.2430 63.8110
X 62.5108 27.2430 46.3110
X 62.5108 27.2430 47.0110
X 62.5108 27.2430 47.7110
X 62.5108 27.2430 48.4110
X 62.5108 27.2430 49.1110
X 62.5108 27.2430 49.8110
X 62.5108 27.2430 50.5110
X 62.5108 27.2430 51.2110
X 62.5108 27.2430 51.9110
X 62.5108 27.2430 52.6110
X 62.5108 27.2430 53.3110
X 62.5108 27.2430 54.0110
X 62.5108 27.2430 54.7110
X 62.5108 27.2430 55.4110
X 62.5108 27.2430 56.1110
X 62.5108 27.2430 56.8110
X 62.5108 27.2430 57.5110
X 62.5108 27.2430 58.2110
X 62.5108 27.2430 58.9110
X 62.5108 27.2430 59.6110
X 62.5108 27.2430 60.3110
X 62.5108 27.2430 61.0110
X 62.5108 27.2430 61.7110
X 62.5108 27.2430 62.4110
X 62.5108 27.2430 63.1110
X 62.5108 27.2430 63.8110
X 63.2108 27.2430 46.3110
X 63.2108 27.2430 47.0110
X 63.2108 27.2430 47.7110
X 63.2108 27.2430 48.4110
X 63.2108 27.2430 49.1110
X 63.2108 27.2430 49.8110
X 63.2108 27.2430 50.5110
X 63.2108 27.2430 51.2110
X 63.2108 27.2430 51.9110
X 63.2108 27.2430 52.6110
X 63.2108 27.2430 53.3110
X 63.2108 27.2430 54.0110
X 63.2108 27.2430 54.7110
X 63.2108 27.2430 55.4110
X 63.2108 27.2430 56.1110
X 63.2108 27.2430 56.8110
X 63.2108 27.2430 57.5110
X 63.2108 27.2430 58.2110
X 63.2108 27.2430 58.9110
X 63.2108 27.2430 59.6110
X 63.2108 27.2430 60.3110
X 63.2108 27.2430 61.0110
X 63.2108 27.2430 61.7110
X 63.2108 27.2430 62.4110
X 63.2108 27.2430 63.1110
X 63.9108 27.2430 46.3110
X 63.9108 27.2430 47.0110
X 63.9108 27.2430 47.7110
X 63.9108 27.2430 48.4110
X 63.9108 27.2430 49.1110
X 63.9108 27.2430 49.8110
X 63.9108 27.2430 50.5110
X 63.9108 27.2430 51.2110
X 63.9108 27.2430 51.9110
X 63.9108 27.2430 52.6110
X 63.9108 27.2430 53.3110
X 63.9108 27.2430 54.0110
X 63.9108 27.2430 54.7110
X 63.9108 27.2430 55.4110
X 63.9108 27.2430 56.1110
X 63.9108 27.2430 56.8110
X 63.9108 27.2430 57.5110
X 63.9108 27.2430 58.2110
X 63.9108 27.2430 58.9110
X 63.9108 27.2430 59.6110
X 63.9108 27.2430 60.3110
X 63.9108 27.2430 61.0110
X 63.9108 27.2430 61.7110
X 63.9108 27.2430 62.4110
X 63.9108 27.2430 63.1110
X 64.6108 27.2430 47.0110
X 64.6108 27.2430 47.7110
X 64.6108 27.2430 48.4110
X 64.6108 27.2430 49.1110
X 64.6108 27.2430 49.8110
X 64.6108 27.2430 50.5110
X 64.6108 27.2430 51.2110
X 64.6108 27.2430 51.9110
X 64.6108 27.2430 52.6110
X 64.6108 27.2430 53.3110
X 64.6108 27.2430 54.0110
X 64.6108 27.2430 54.7110
X 64.6108 27.2430 55.4110
X 64.6108 27.2430 56.1110
X 64.6108 27.2430 56.8110
X 64.6108 27.2430 57.5110
X 64.6108 27.2430 58.2110
X 64.6108 27.2430 58.9110
X 64.6108 27.2430 59.6110
X 64.6108 27.2430 60.3110
X 64.6108 27.2430 61.0110
X 64.6108 27.2430 61.7110
X 64.6108 27.2430 62.4110
X 65.3108 27.2430 47.0110
X 65.3108 27.2430 47.7110
X 65.3108 27.2430 48.4110
X 65.3108 27.2430 49.1110
X 65.3108 27.2430 49.8110
X 65.3108 27.2430 50.5110
X 65.3108 27.2430 51.2110
X 65.3108 27.2430 51.9110
X 65.3108 27.2430 52.6110
X 65.3108 27.2430 53.3110
X 65.3108 27.2430 54.0110
X 65.3108 27.2430 54.7110
X 65.3108 27.2430 55.4110
X 65.3108 27.2430 56.1110
X 65.3108 27.2430 56.8110
X 65.3108 27.2430 57.5110
X 65.3108 27.2430 58.2110
X 65.3108 27.2430 58.9110
X 65.3108 27.2430 59.6110
X 65.3108 27.2430 60.3110
X 65.3108 27.2430 61.0110
X 65.3108 27.2430 61.7110
X 65.3108 27.2430 62.4110
X 66.0108 27.2430 47.7110
X 66.0108 27.2430 48.4110
X 66.0108 27.2430 49.1110
X 66.0108 27.2430 49.8110
X 66.0108 27.2430 50.5110
X 66.0108 27.2430 51.2110
X 66.0108 27.2430 51.9110
X 66.0108 27.2430 52.6110
X 66.0108 27.2430 53.3110
X 66.0108 27.2430 54.0110
X 66.0108 27.2430 54.7110
X 66.0108 27.2430 55.4110
X 66.0108 27.2430 56.1110
X 66.0108 27.2430 56.8110
X 66.0108 27.2430 57.5110
X 66.0108 27.2430 58.2110
X 66.0108 27.2430 58.9110
X 66.0108 27.2430 59.6110
X 66.0108 27.2430 60.3110
X 66.0108 27.2430 61.0110
X 66.0108 27.2430 61.7110
X 66.7108 27.2430 48.4110
X 66.7108 27.2430 49.1110
X 66.7108 27.2430 49.8110
X 66.7108 27.2430 50.5110
X 66.7108 27.2430 51.2110
X 66.7108 27.2430 51.9110
X 66.7108 27.2430 52.6110
X 66.7108 27.2430 53.3110
X 66.7108 27.2430 54.0110
X 66.7108 27.2430 54.7110
X 66.7108 27.2430 55.4110
X 66.7108 27.2430 56.1110
X 66.7108 27.2430 56.8110
X 66.7108 27.2430 57.5110
X 66.7108 27.2430 58.2110
X 66.7108 27.2430 58.9110
X 66.7108 27.2430 59.6110
X 66.7108 27.2430 60.3110
X 66.7108 27.2430 61.0110
X 67.4108 27.2430 49.1110
X 67.4108 27.2430 49.8110
X 67.4108 27.2430 50.5110
X 67.4108 27.2430 51.2110
X 67.4108 27.2430 51.9110
X 67.4108 27.2430 52.6110
X 67.4108 27.2430 53.3110
X 67.4108 27.2430 54.0110
X 67.4108 27.2430 54.7110
X 67.4108 27.2430 55.4110
X 67.4108 27.2430 56.1110
X 67.4108 27.2430 56.8110
X 67.4108 27.2430 57.5110
X 67.4108 27.2430 58.2110
X 67.4108 27.2430 58.9110
X 67.4108 27.2430 59.6110
X 67.4108 27.2430 60.3110
X 68.1108 27.2430 49.8110
X 68.1108 27.2430 50.5110
X 68.1108 27.2430 51.2110
X 68.1108 27.2430 51.9110
X 68.1108 27.2430 52.6110
X 68.1108 27.2430 53.3110
X 68.1108 27.2430 54.0110
X 68.1108 27.2430 54.7110
X 68.1108 27.2430 55.4110
X 68.1108 27.2430 56.1110
X 68.1108 27.2430 56.8110
X 68.1108 27.2430 57.5110
X 68.1108 27.2430 58.2110
X 68.1108 27.2430 58.9110
X 68.1108 27.2430 59.6110
X 68.8108 27.2430 51.9110
X 68.8108 27.2430 52.6110
X 68.8108 27.2430 53.3110
X 68.8108 27.2430 54.0110
X 68.8108 27.2430 54.7110
X 68.8108 27.2430 55.4110
X 68.8108 27.2430 56.1110
X 68.8108 27.2430 56.8110
X 68.8108 27.2430 57.5110
X 68.8108 27.2430 58.2110
X 68.8108 27.2430 58.9110
X 69.5108 27.2430 54.7110
X 69.5108 27.2430 55.4110
X 69.5108 27.2430 56.1110
X 47.8108 27.9430 52.6110
X 47.8108 27.9430 53.3110
X 47.8108 27.9430 54.0110
X 47.8108 27.9430 54.7110
X 47.8108 27.9430 55.4110
X 47.8108 27.9430 56.1110
X 47.8108 27.9430 56.8110
X 47.8108 27.9430 57.5110
X 48.5108 27.9430 51.2110
X 48.5108 27.9430 51.9110
X 48.5108 27.9430 52.6110
X 48.5108 27.9430 53.3110
X 48.5108 27.9430 54.0110
X 48.5108 27.9430 54.7110
X 48.5108 27.9430 55.4110
X 48.5108 27.9430 56.1110
X 48.5108 27.9430 56.8110
X 48.5108 27.9430 57.5110
X 48.5108 27.9430 58.2110
X 48.5108 27.9430 58.9110
X 49.2108 27.9430 50.5110
X 49.2108 27.9430 51.2110
X 49.2108 27.9430 51.9110
X 49.2108 27.9430 52.6110
X 49.2108 27.9430 53.3110
X 49.2108 27.9430 54.0110
X 49.2108 27.9430 54.7110
X 49.2108 27.9430 55.4110
X 49.2108 27.9430 56.1110
X 49.2108 27.9430 56.8110
X 49.2108 27.9430 57.5110
X 49.2108 27.9430 58.2110
X 49.2108 27.9430 58.9110
X 49.2108 27.9430 59.6110
X 49.9108 27.9430 49.8110
X 49.9108 27.9430 50.5110
X 49.9108 27.9430 51.2110
X 49.9108 27.9430 51.9110
X 49.9108 27.9430 52.6110
X 49.9108 27.9430 53.3110
X 49.9108 27.9430 54.0110
X 49.9108 27.9430 54.7110
X 49.9108 27.9430 55.4110
X 49.9108 27.9430 56.1110
X 49.9108 27.9430 56.8110
X 49.9108 27.9430 57.5110
X 49.9108 27.9430 58.2110
X 49.9108 27.9430 58.9110
X 49.9108 27.9430 59.6110
X 49.9108 27.9430 60.3110
X 50.6108 27.9430 49.1110
X 50.6108 27.9430 49.8110
X 50.6108 27.9430 50.5110
X 50.6108 27.9430 51.2110
X 50.6108 27.9430 51.9110
X 50.6108 27.9430 52.6110
X 50.6108 27.9430 53.3110
X 50.6108 27.9430 54.0110
X 50.6108 27.9430 54.7110
X 50.6108 27.9430 55.4110
X 50.6108 27.9430 56.1110
X 50.6108 27.9430 56.8110
X 50.6108 27.9430 57.5110
X 50.6108 27.9430 58.2110
X 50.6108 27.9430 58.9110
X 50.6108 27.9430 59.6110
X 50.6108 27.9430 60.3110
X 50.6108 27.9430 61.0110
X 51.3108 27.9430 48.4110
X 51.3108 27.9430 49.1110
X 51.3108 27.9430 49.8110
X 51.3108 27.9430 50.5110
X 51.3108 27.9430 51.2110
X 51.3108 27.9430 51.9110
X 51.3108 27.9430 52.6110
X 51.3108 27.9430 53.3110
X 51.3108 27.9430 54.0110
X 51.3108 27.9430 54.7110
X 51.3108 27.9430 55.4110
X 51.3108 27.9430 56.1110
X 51.3108 27.9430 56.8110
X 51.3108 27.9430 57.5110
X 51.3108 27.9430 58.2110
X 51.3108 27.9430 58.9110
X 51.3108 27.9430 59.6110
X 51.3108 27.9430 60.3110
X 51.3108 27.9430 61.0110
X 51.3108 27.9430 61.7110
X 51.3108 27.9430 62.4110
X 52.0108 27.9430 47.7110
X 52.0108 27.9430 48.4110
X 52.0108 27.9430 49.1110
X 52.0108 27.9430 49.8110
X 52.0108 27.9430 50.5110
X 52.0108 27.9430 51.2110
X 52.0108 27.9430 51.9110
X 52.0108 27.9430 52.6110
X 52.0108 27.9430 53.3110
X 52.0108 27.9430 54.0110
X 52.0108 27.9430 54.7110
X 52.0108 27.9430 55.4110
X 52.0108 27.9430 56.1110
X 52.0108 27.9430 56.8110
X 52.0108 27.9430 57.5110
X 52.0108 27.9430 58.2110
X 52.0108 27.9430 58.9110
X 52.0108 27.9430 59.6110
X 52.0108 27.9430 60.3110
X 52.0108 27.9430 61.0110
X 52.0108 27.9430 61.7110
X 52.0108 27.9430 62.4110
X 52.7108 27.9430 47.7110
X 52.7108 27.9430 48.4110
X 52.7108 27.9430 49.1110
X 52.7108 27.9430 49.8110
X 52.7108 27.9430 50.5110
X 52.7108 27.9430 51.2110
X 52.7108 27.9430 51.9110
X 52.7108 27.9430 52.6110
X 52.7108 27.9430 53.3110
X 52.7108 27.9430 54.0110
X 52.7108 27.9430 54.7110
X 52.7108 27.9430 55.4110
X 52.7108 27.9430 56.1110
X 52.7108 27.9430 56.8110
X 52.7108 27.9430 57.5110
X 52.7108 27.9430 58.2110
X 52.7108 27.9430 58.9110
X 52.7108 27.9430 59.6110
X 52.7108 27.9430 60.3110
X 52.7108 27.9430 61.0110
X 52.7108 27.9430 61.7110
X 52.7108 27.9430 62.4110
X 52.7108 27.9430 63.1110
X 53.4108 27.9430 47.7110
X 53.4108 27.9430 48.4110
X 53.4108 27.9430 49.1110
X 53.4108 27.9430 49.8110
X 53.4108 27.9430 50.5110
X 53.4108 27.9430 51.2110
X 53.4108 27.9430 51.9110
X 53.4108 27.9430 52.6110
X 53.4108 27.9430 53.3110
X 53.4108 27.9430 54.0110
X 53.4108 27.9430 54.7110
X 53.4108 27.9430 55.4110
X 53.4108 27.9430 56.1110
X 53.4108 27.9430 56.8110
X 53.4108 27.9430 57.5110
X 53.4108 27.9430 58.2110
X 53.4108 27.9430 58.9110
X 53.4108 27.9430 59.6110
X 53.4108 27.9430 60.3110
X 53.4108 27.9430 61.0110
X 53.4108 27.9430 61.7110
X 53.4108 27.9430 62.4110
X 53.4108 27.9430 63.1110
X 53.4108 27.9430 63.8110
X 54.1108 27.9430 47.0110
X 54.1108 27.9430 47.7110
X 54.1108 27.9430 48.4110
X 54.1108 27.9430 49.1110
X 54.1108 27.9430 49.8110
X 54.1108 27.9430 50.5110
X 54.1108 27.9430 51.2110
X 54.1108 27.9430 51.9110
X 54.1108 27.9430 52.6110
X 54.1108 27.9430 53.3110
X 54.1108 27.9430 54.0110
X 54.1108 27.9430 54.7110
X 54.1108 27.9430 55.4110
X 54.1108 27.9430 56.1110
X 54.1108 27.9430 56.8110
X 54.1108 27.9430 57.5110
X 54.1108 27.9430 58.2110
X 54.1108 27.9430 58.9110
X 54.1108 27.9430 59.6110
X 54.1108 27.9430 60.3110
X 54.1108 27.9430 61.0110
X 54.1108 27.9430 61.7110
X 54.1108 27.9430 62.4110
X 54.1108 27.9430 63.1110
X 54.1108 27.9430 63.8110
X 54.8108 27.9430 47.0110
X 54.8108 27.9430 47.7110
X 54.8108 27.9430 48.4110
X 54.8108 27.9430 49.1110
X 54.8108 27.9430 49.8110
X 54.8108 27.9430 50.5110
X 54.8108 27.9430 51.2110
X 54.8108 27.9430 51.9110
X 54.8108 27.9430 52.6110
X 54.8108 27.9430 53.3110
X 54.8108 27.9430 54.0110
X 54.8108 27.9430 54.7110
X 54.8108 27.9430 55.4110
X 54.8108 27.9430 56.1110
X 54.8108 27.9430 56.8110
X 54.8108 27.9430 57.5110
X 54.8108 27.9430 58.2110
X 54.8108 27.9430 58.9110
X 54.8108 27.9430 59.6110
X 54.8108 27.9430 60.3110
X 54.8108 27.9430 61.0110
X 54.8108 27.9430 61.7110
X 54.8108 27.9430 62.4110
X 54.8108 27.9430 63.1110
X 54.8108 27.9430 63.8110
X 55.5108 27.9430 47.0110
X 55.5108 27.9430 47.7110
X 55.5108 27.9430 48.4110
X 55.5108 27.9430 49.1110
X 55.5108 27.9430 49.8110
X 55.5108 27.9430 50.5110
X 55.5108 27.9430 51.2110
X 55.5108 27.9430 51.9110
X 55.5108 27.9430 52.6110
X 55.5108 27.9430 53.3110
X 55.5108 27.9430 54.0110
X 55.5108 27.9430 54.7110
X 55.5108 27.9430 55.4110
X 55.5108 27.9430 56.1110
X 55.5108 27.9430 56.8110
X 55.5108 27.9430 57.5110
X 55.5108 27.9430 58.2110
X 55.5108 27.9430 58.9110
X 55.5108 27.9430 59.6110
X 55.5108 27.9430 60.3110
X 55.5108 27.9430 61.0110
X 55.5108 27.9430 61.7110
X 55.5108 27.9430 62.4110
X 55.5108 27.9430 63.1110
X 55.5108 27.9430 63.8110
X 55.5108 27.9430 64.5110
X 56.2108 27.9430 47.0110
X 56.2108 27.9430 47.7110
X 56.2108 27.9430 48.4110
X 56.2108 27.9430 49.1110
X 56.2108 27.9430 49.8110
X 56.2108 27.9430 50.5110
X 56.2108 27.9430 51.2110
X 56.2108 27.9430 51.9110
X 56.2108 27.9430 52.6110
X 56.2108 27.9430 53.3110
X 56.2108 27.9430 54.0110
X 56.2108 27.9430 54.7110
X 56.2108 27.9430 55.4110
X 56.2108 27.9430 56.1110
X 56.2108 27.9430 56.8110
X 56.2108 27.9430 57.5110
X 56.2108 27.9430 58.2110
X 56.2108 27.9430 58.9110
X 56.2108 27.9430 59.6110
X 56.2108 27.9430 60.3110
X 56.2108 27.9430 61.0110
X 56.2108 27.9430 61.7110
X 56.2108 27.9430 62.4110
X 56.2108 27.9430 63.1110
X 56.2108 27.9430 63.8110
X 56.2108 27.9430 64.5110
X 56.9108 27.9430 47.0110
X 56.9108 27.9430 47.7110
X 56.9108 27.9430 48.4110
X 56.9108 27.9430 49.1110
X 56.9108 27.9430 49.8110
X 56.9108 27.9430 50.5110
X 56.9108 27.9430 51.2110
X 56.9108 27.9430 51.9110
X 56.9108 27.9430 52.6110
X 56.9108 27.9430 53.3110
X 56.9108 27.9430 54.0110
X 56.9108 27.9430 54.7110
X 56.9108 27.9430 55.4110
X 56.9108 27.9430 56.1110
X 56.9108 27.9430 56.8110
X 56.9108 27.9430 57.5110
X 56.9108 27.9430 58.2110
X 56.9108 27.9430 58.9110
X 56.9108 27.9430 59.6110
X 56.9108 27.9430 60.3110
X 56.9108 27.9430 61.0110
X 56.9108 27.9430 61.7110
X 56.9108 27.9430 62.4110
X 56.9108 27.9430 63.1110
X 56.9108 27.9430 63.8110
X 56.9108 27.9430 64.5110
X 57.6108 27.9430 47.0110
X 57.6108 27.9430 47.7110
X 57.6108 27.9430 48.4110
X 57.6108 27.9430 49.1110
X 57.6108 27.9430 49.8110
X 57.6108 27.9430 50.5110
X 57.6108 27.9430 51.2110
X 57.6108 27.9430 51.9110
X 57.6108 27.9430 52.6110
X 57.6108 27.9430 53.3110
X 57.6108 27.9430 54.0110
X 57.6108 27.9430 54.7110
X 57.6108 27.9430 55.4110
X 57.6108 27.9430 56.1110
X 57.6108 27.9430 56.8110
X 57.6108 27.9430 57.5110
X 57.6108 27.9430 58.2110
X 57.6108 27.9430 58.9110
X 57.6108 27.9430 59.6110
X 57.6108 27.9430 60.3110
X 57.6108 27.9430 61.0110
X 57.6108 27.9430 61.7110
X 57.6108 27.9430 62.4110
X 57.6108 27.9430 63.1110
X 57.6108 27.9430 63.8110
X 57.6108 27.9430 64.5110
X 58.3108 27.9430 46.3110
X 58.3108 27.9430 47.0110
X 58.3108 27.9430 47.7110
X 58.3108 27.9430 48.4110
X 58.3108 27.9430 49.1110
X 58.3108 27.9430 49.8110
X 58.3108 27.9430 50.5110
X 58.3108 27.9430 51.2110
X 58.3108 27.9430 51.9110
X 58.3108 27.9430 52.6110
X 58.3108 27.9430 53.3110
X 58.3108 27.9430 54.0110
X 58.3108 27.9430 54.7110
X 58.3108 27.9430 55.4110
X 58.3108 27.9430 56.1110
X 58.3108 27.9430 56.8110
X 58.3108 27.9430 57.5110
X 58.3108 27.9430 58.2110
X 58.3108 27.9430 58.9110
X 58.3108 27.9430 59.6110
X 58.3108 27.9430 60.3110
X 58.3108 27.9430 61.0110
X 58.3108 27.9430 61.7110
X 58.3108 27.9430 62.4110
X 58.3108 27.9430 63.1110
X 58.3108 27.9430 63.8110
X 58.3108 27.9430 64.5110
X 59.0108 27.9430 46.3110
X 59.0108 27.9430 47.0110
X 59.0108 27.9430 47.7110
X 59.0108 27.9430 48.4110
X 59.0108 27.9430 49.1110
X 59.0108 27.9430 49.8110
X 59.0108 27.9430 50.5110
X 59.0108 27.9430 51.2110
X 59.0108 27.9430 51.9110
X 59.0108 27.9430 52.6110
X 59.0108 27.9430 53.3110
X 59.0108 27.9430 54.0110
X 59.0108 27.9430 54.7110
X 59.0108 27.9430 55.4110
X 59.0108 27.9430 56.1110
X 59.0108 27.9430 56.8110
X 59.0108 27.9430 57.5110
X 59.0108 27.9430 58.2110
X 59.0108 27.9430 58.9110
X 59.0108 27.9430 59.6110
X 59.0108 27.9430 60.3110
X 59.0108 27.9430 61.0110
X 59.0108 27.9430 61.7110
X 59.0108 27.9430 62.4110
X 59.0108 27.9430 63.1110
X 59.0108 27.9430 63.8110
X 59.0108 27.9430 64.5110
X 59.7108 27.9430 45.6110
X 59.7108 27.9430 46.3110
X 59.7108 27.9430 47.0110
X 59.7108 27.9430 47.7110
X 59.7108 27.9430 48.4110
X 59.7108 27.9430 49.1110
X 59.7108 27.9430 49.8110
X 59.7108 27.9430 50.5110
X 59.7108 27.9430 51.2110
X 59.7108 27.9430 51.9110
X 59.7108 27.9430 52.6110
X 59.7108 27.9430 53.3110
X 59.7108 27.9430 54.0110
X 59.7108 27.9430 54.7110
X 59.7108 27.9430 55.4110
X 59.7108 27.9430 56.1110
X 59.7108 27.9430 56.8110
X 59.7108 27.9430 57.5110
X 59.7108 27.9430 58.2110
X 59.7108 27.9430 58.9110
X 59.7108 27.9430 59.6110
X 59.7108 27.9430 60.3110
X 59.7108 27.9430 61.0110
X 59.7108 27.9430 61.7110
X 59.7108 27.9430 62.4110
X 59.7108 27.9430 63.1110
X 59.7108 27.9430 63.8110
X 59.7108 27.9430 64.5110
X 60.4108 27.9430 45.6110
X 60.4108 27.9430 46.3110
X 60.4108 27.9430 47.0110
X 60.4108 27.9430 47.7110
X 60.4108 27.9430 48.4110
X 60.4108 27.9430 49.1110
X 60.4108 27.9430 49.8110
X 60.4108 27.9430 50.5110
X 60.4108 27.9430 51.2110
X 60.4108 27.9430 51.9110
X 60.4108 27.9430 52.6110
X 60.4108 27.9430 53.3110
X 60.4108 27.9430 54.0110
X 60.4108 27.9430 54.7110
X 60.4108 27.9430 55.4110
X 60.4108 27.9430 56.1110
X 60.4108 27.9430 56.8110
X 60.4108 27.9430 57.5110
X 60.4108 27.9430 58.2110
X 60.4108 27.9430 58.9110
X 60.4108 27.9430 59.6110
X 60.4108 27.9430 60.3110
X 60.4108 27.9430 61.0110
X 60.4108 27.9430 61.7110
X 60.4108 27.9430 62.4110
X 60.4108 27.9430 63.1110
X 60.4108 27.9430 63.8110
X 60.4108 27.9430 64.5110
X 61.1108 27.9430 45.6110
X 61.1108 27.9430 46.3110
X 61.1108 27.9430 47.0110
X 61.1108 27.9430 47.7110
X 61.1108 27.9430 48.4110
X 61.1108 27.9430 49.1110
X 61.1108 27.9430 49.8110
X 61.1108 27.9430 50.5110
X 61.1108 27.9430 51.2110
X 61.1108 27.9430 51.9110
X 61.1108 27.9430 52.6110
X 61.1108 27.9430 53.3110
X 61.1108 27.9430 54.0110
X 61.1108 27.9430 54.7110
X 61.1108 27.9430 55.4110
X 61.1108 27.9430 56.1110
X 61.1108 27.9430 56.8110
X 61.1108 27.9430 57.5110
X 61.1108 27.9430 58.2110
X 61.1108 27.9430 58.9110
X 61.1108 27.9430 59.6110
X 61.1108 27.9430 60.3110
X 61.1108 27.9430 61.0110
X 61.1108 27.9430 61.7110
X 61.1108 27.9430 62.4110
X 61.1108 27.9430 63.1110
X 61.1108 27.9430 63.8110
X 61.1108 27.9430 64.5110
X 61.8108 27.9430 45.6110
X 61.8108 27.9430 46.3110
X 61.8108 27.9430 47.0110
X 61.8108 27.9430 47.7110
X 61.8108 27.9430 48.4110
X 61.8108 27.9430 49.1110
X 61.8108 27.9430 49.8110
X 61.8108 27.9430 50.5110
X 61.8108 27.9430 51.2110
X 61.8108 27.9430 51.9110
X 61.8108 27.9430 52.6110
X 61.8108 27.9430 53.3110
X 61.8108 27.9430 54.0110
X 61.8108 27.9430 54.7110
X 61.8108 27.9430 55.4110
X 61.8108 27.9430 56.1110
X 61.8108 27.9430 56.8110
X 61.8108 27.9430 57.5110
X 61.8108 27.9430 58.2110
X 61.8108 27.9430 58.9110
X 61.8108 27.9430 59.6110
X 61.8108 27.9430 60.3110
X 61.8108 27.9430 61.0110
X 61.8108 27.9430 61.7110
X 61.8108 27.9430 62.4110
X 61.8108 27.9430 63.1110
X 61.8108 27.9430 63.8110
X 62.5108 27.9430 45.6110
X 62.5108 27.9430 46.3110
X 62.5108 27.9430 47.0110
X 62.5108 27.9430 47.7110
X 62.5108 27.9430 48.4110
X 62.5108 27.9430 49.1110
X 62.5108 27.9430 49.8110
X 62.5108 27.9430 50.5110
X 62.5108 27.9430 51.2110
X 62.5108 27.9430 51.9110
X 62.5108 27.9430 52.6110
X 62.5108 27.9430 53.3110
X 62.5108 27.9430 54.0110
X 62.5108 27.9430 54.7110
X 62.5108 27.9430 55.4110
X 62.5108 27.9430 56.1110
X 62.5108 27.9430 56.8110
X 62.5108 27.9430 57.5110
X 62.5108 27.9430 58.2110
X 62.5108 27.9430 58.9110
X 62.5108 27.9430 59.6110
X 62.5108 27.9430 60.3110
X 62.5108 27.9430 61.0110
X 62.5108 27.9430 61.7110
X 62.5108 27.9430 62.4110
X 62.5108 27.9430 63.1110
X 62.5108 27.9430 63.8110
X 63.2108 27.9430 45.6110
X 63.2108 27.9430 46.3110
X 63.2108 27.9430 47.0110
X 63.2108 27.9430 47.7110
X 63.2108 27.9430 48.4110
X 63.2108 27.9430 49.1110
X 63.2108 27.9430 49.8110
X 63.2108 27.9430 50.5110
X 63.2108 27.9430 51.2110
X 63.2108 27.9430 51.9110
X 63.2108 27.9430 52.6110
X 63.2108 27.9430 53.3110
X 63.2108 27.9430 54.0110
X 63.2108 27.9430 54.7110
X 63.2108 27.9430 55.4110
X 63.2108 27.9430 56.1110
X 63.2108 27.9430 56.8110
X 63.2108 27.9430 57.5110
X 63.2108 27.9430 58.2110
X 63.2108 27.9430 58.9110
X 63.2108 27.9430 59.6110
X 63.2108 27.9430 60.3110
X 63.2108 27.9430 61.0110
X 63.2108 27.9430 61.7110
X 63.2108 27.9430 62.4110
X 63.2108 27.9430 63.1110
X 63.2108 27.9430 63.8110
X 63.9108 27.9430 46.3110
X 63.9108 27.9430 47.0110
X 63.9108 27.9430 47.7110
X 63.9108 27.9430 48.4110
X 63.9108 27.9430 49.1110
X 63.9108 27.9430 49.8110
X 63.9108 27.9430 50.5110
X 63.9108 27.9430 51.2110
X 63.9108 27.9430 51.9110
X 63.9108 27.9430 52.6110
X 63.9108 27.9430 53.3110
X 63.9108 27.9430 54.0110
X 63.9108 27.9430 54.7110
X 63.9108 27.9430 55.4110
X 63.9108 27.9430 56.1110
X 63.9108 27.9430 56.8110
X 63.9108 27.9430 57.5110
X 63.9108 27.9430 58.2110
X 63.9108 27.9430 58.9110
X 63.9108 27.9430 59.6110
X 63.9108 27.9430 60.3110
X 63.9108 27.9430 61.0110
X 63.9108 27.9430 61.7110
X 63.9108 27.9430 62.4110
X 63.9108 27.9430 63.1110
X 64.6108 27.9430 46.3110
X 64.6108 27.9430 47.0110
X 64.6108 27.9430 47.7110
X 64.6108 27.9430 48.4110
X 64.6108 27.9430 49.1110
X 64.6108 27.9430 49.8110
X 64.6108 27.9430 50.5110
X 64.6108 27.9430 51.2110
X 64.6108 27.9430 51.9110
X 64.6108 27.9430 52.6110
X 64.6108 27.9430 53.3110
X 64.6108 27.9430 54.0110
X 64.6108 27.9430 54.7110
X 64.6108 27.9430 55.4110
X 64.6108 27.9430 56.1110
X 64.6108 27.9430 56.8110
X 64.6108 27.9430 57.5110
X 64.6108 27.9430 58.2110
X 64.6108 27.9430 58.9110
X 64.6108 27.9430 59.6110
X 64.6108 27.9430 60.3110
X 64.6108 27.9430 61.0110
X 64.6108 27.9430 61.7110
X 64.6108 27.9430 62.4110
X 64.6108 27.9430 63.1110
X 65.3108 27.9430 47.0110
X 65.3108 27.9430 47.7110
X 65.3108 27.9430 48.4110
X 65.3108 27.9430 49.1110
X 65.3108 27.9430 49.8110
X 65.3108 27.9430 50.5110
X 65.3108 27.9430 51.2110
X 65.3108 27.9430 51.9110
X 65.3108 27.9430 52.6110
X 65.3108 27.9430 53.3110
X 65.3108 27.9430 54.0110
X 65.3108 27.9430 54.7110
X 65.3108 27.9430 55.4110
X 65.3108 27.9430 56.1110
X 65.3108 27.9430 56.8110
X 65.3108 27.9430 57.5110
X 65.3108 27.9430 58.2110
X 65.3108 27.9430 58.9110
X 65.3108 27.9430 59.6110
X 65.3108 27.9430 60.3110
X 65.3108 27.9430 61.0110
X 65.3108 27.9430 61.7110
X 65.3108 27.9430 62.4110
X 66.0108 27.9430 47.0110
X 66.0108 27.9430 47.7110
X 66.0108 27.9430 48.4110
X 66.0108 27.9430 49.1110
X 66.0108 27.9430 49.8110
X 66.0108 27.9430 50.5110
X 66.0108 27.9430 51.2110
X 66.0108 27.9430 51.9110
X 66.0108 27.9430 52.6110
X 66.0108 27.9430 53.3110
X 66.0108 27.9430 54.0110
X 66.0108 27.9430 54.7110
X 66.0108 27.9430 55.4110
X 66.0108 27.9430 56.1110
X 66.0108 27.9430 56.8110
X 66.0108 27.9430 57.5110
X 66.0108 27.9430 58.2110
X 66.0108 27.9430 58.9110
X 66.0108 27.9430 59.6110
X 66.0108 27.9430 60.3110
X 66.0108 27.9430 61.0110
X 66.0108 27.9430 61.7110
X 66.0108 27.9430 62.4110
X 66.7108 27.9430 47.7110
X 66.7108 27.9430 48.4110
X 66.7108 27.9430 49.1110
X 66.7108 27.9430 49.8110
X 66.7108 27.9430 50.5110
X 66.7108 27.9430 51.2110
X 66.7108 27.9430 51.9110
X 66.7108 27.9430 52.6110
X 66.7108 27.9430 53.3110
X 66.7108 27.9430 54.0110
X 66.7108 27.9430 54.7110
X 66.7108 27.9430 55.4110
X 66.7108 27.9430 56.1110
X 66.7108 27.9430 56.8110
X 66.7108 27.9430 57.5110
X 66.7108 27.9430 58.2110
X 66.7108 27.9430 58.9110
X 66.7108 27.9430 59.6110
X 66.7108 27.9430 60.3110
X 66.7108 27.9430 61.0110
X 66.7108 27.9430 61.7110
X 67.4108 27.9430 48.4110
X 67.4108 27.9430 49.1110
X 67.4108 27.9430 49.8110
X 67.4108 27.9430 50.5110
X 67.4108 27.9430 51.2110
X 67.4108 27.9430 51.9110
X 67.4108 27.9430 52.6110
X 67.4108 27.9430 53.3110
X 67.4108 27.9430 54.0110
X 67.4108 27.9430 54.7110
X 67.4108 27.9430 55.4110
X 67.4108 27.9430 56.1110
X 67.4108 27.9430 56.8110
X 67.4108 27.9430 57.5110
X 67.4108 27.9430 58.2110
X 67.4108 27.9430 58.9110
X 67.4108 27.9430 59.6110
X 67.4108 27.9430 60.3110
X 67.4108 27.9430 61.0110
X 68.1108 27.9430 49.1110
X 68.1108 27.9430 49.8110
X 68.1108 27.9430 50.5110
X 68.1108 27.9430 51.2110
X 68.1108 27.9430 51.9110
X 68.1108 27.9430 52.6110
X 68.1108 27.9430 53.3110
X 68.1108 27.9430 54.0110
X 68.1108 27.9430 54.7110
X 68.1108 27.9430 55.4110
X 68.1108 27.9430 56.1110
X 68.1108 27.9430 56.8110
X 68.1108 27.9430 57.5110
X 68.1108 27.9430 58.2110
X 68.1108 27.9430 58.9110
X 68.1108 27.9430 59.6110
X 68.1108 27.9430 60.3110
X 68.8108 27.9430 50.5110
X 68.8108 27.9430 51.2110
X 68.8108 27.9430 51.9110
X 68.8108 27.9430 52.6110
X 68.8108 27.9430 53.3110
X 68.8108 27.9430 54.0110
X 68.8108 27.9430 54.7110
X 68.8108 27.9430 55.4110
X 68.8108 27.9430 56.1110
X 68.8108 27.9430 56.8110
X 68.8108 27.9430 57.5110
X 68.8108 27.9430 58.2110
X 68.8108 27.9430 58.9110
X 68.8108 27.9430 59.6110
X 69.5108 27.9430 53.3110
X 69.5108 27.9430 54.0110
X 69.5108 27.9430 54.7110
X 69.5108 27.9430 55.4110
X 69.5108 27.9430 56.1110
X 69.5108 27.9430 56.8110
X 69.5108 27.9430 57.5110
X 69.5108 27.9430 58.2110
X 47.1108 28.6430 54.0110
X 47.1108 28.6430 54.7110
X 47.1108 28.6430 55.4110
X 47.1108 28.6430 56.1110
X 47.8108 28.6430 51.9110
X 47.8108 28.6430 52.6110
X 47.8108 28.6430 53.3110
X 47.8108 28.6430 54.0110
X 47.8108 28.6430 54.7110
X 47.8108 28.6430 55.4110
X 47.8108 28.6430 56.1110
X 47.8108 28.6430 56.8110
X 47.8108 28.6430 57.5110
X 47.8108 28.6430 58.2110
X 48.5108 28.6430 50.5110
X 48.5108 28.6430 51.2110
X 48.5108 28.6430 51.9110
X 48.5108 28.6430 52.6110
X 48.5108 28.6430 53.3110
X 48.5108 28.6430 54.0110
X 48.5108 28.6430 54.7110
X 48.5108 28.6430 55.4110
X 48.5108 28.6430 56.1110
X 48.5108 28.6430 56.8110
X 48.5108 28.6430 57.5110
X 48.5108 28.6430 58.2110
X 48.5108 28.6430 58.9110
X 48.5108 28.6430 59.6110
X 49.2108 28.6430 49.8110
X 49.2108 28.6430 50.5110
X 49.2108 28.6430 51.2110
X 49.2108 28.6430 51.9110
X 49.2108 28.6430 52.6110
X 49.2108 28.6430 53.3110
X 49.2108 28.6430 54.0110
X 49.2108 28.6430 54.7110
X 49.2108 28.6430 55.4110
X 49.2108 28.6430 56.1110
X 49.2108 28.6430 56.8110
X 49.2108 28.6430 57.5110
X 49.2108 28.6430 58.2110
X 49.2108 28.6430 58.9110
X 49.2108 28.6430 59.6110
X 49.2108 28.6430 60.3110
X 49.9108 28.6430 49.1110
X 49.9108 28.6430 49.8110
X 49.9108 28.6430 50.5110
X 49.9108 28.6430 51.2110
X 49.9108 28.6430 51.9110
X 49.9108 28.6430 52.6110
X 49.9108 28.6430 53.3110
X 49.9108 28.6430 54.0110
X 49.9108 28.6430 54.7110
X 49.9108 28.6430 55.4110
X 49.9108 28.6430 56.1110
X 49.9108 28.6430 56.8110
X 49.9108 28.6430 57.5110
X 49.9108 28.6430 58.2110
X 49.9108 28.6430 58.9110
X 49.9108 28.6430 59.6110
X 49.9108 28.6430 60.3110
X 49.9108 28.6430 61.0110
X 50.6108 28.6430 48.4110
X 50.6108 28.6430 49.1110
X 50.6108 28.6430 49.8110
X 50.6108 28.6430 50.5110
X 50.6108 28.6430 51.2110
X 50.6108 28.6430 51.9110
X 50.6108 28.6430 52.6110
X 50.6108 28.6430 53.3110
X 50.6108 28.6430 54.0110
X 50.6108 28.6430 54.7110
X 50.6108 28.6430 55.4110
X 50.6108 28.6430 56.1110
X 50.6108 28.6430 56.8110
X 50.6108 28.6430 57.5110
X 50.6108 28.6430 58.2110
X 50.6108 28.6430 58.9110
X 50.6108 28.6430 59.6110
X 50.6108 28.6430 60.3110
X 50.6108 28.6430 61.0110
X 50.6108 28.6430 61.7110
X 51.3108 28.6430 47.7110
X 51.3108 28.6430 48.4110
X 51.3108 28.6430 49.1110
X 51.3108 28.6430 49.8110
X 51.3108 28.6430 50.5110
X 51.3108 28.6430 51.2110
X 51.3108 28.6430 51.9110
X 51.3108 28.6430 52.6110
X 51.3108 28.6430 53.3110
X 51.3108 28.6430 54.0110
X 51.3108 28.6430 54.7110
X 51.3108 28.6430 55.4110
X 51.3108 28.6430 56.1110
X 51.3108 28.6430 56.8110
X 51.3108 28.6430 57.5110
X 51.3108 28.6430 58.2110
X 51.3108 28.6430 58.9110
X 51.3108 28.6430 59.6110
X 51.3108 28.6430 60.3110
X 51.3108 28.6430 61.0110
X 51.3108 28.6430 61.7110
X 51.3108 28.6430 62.4110
X 52.0108 28.6430 47.7110
X 52.0108 28.6430 48.4110
X 52.0108 28.6430 49.1110
X 52.0108 28.6430 49.8110
X 52.0108 28.6430 50.5110
X 52.0108 28.6430 51.2110
X 52.0108 28.6430 51.9110
X 52.0108 28.6430 52.6110
X 52.0108 28.6430 53.3110
X 52.0108 28.6430 54.0110
X 52.0108 28.6430 54.7110
X 52.0108 28.6430 55.4110
X 52.0108 28.6430 56.1110
X 52.0108 28.6430 56.8110
X 52.0108 28.6430 57.5110
X 52.0108 28.6430 58.2110
X 52.0108 28.6430 58.9110
X 52.0108 28.6430 59.6110
X 52.0108 28.6430 60.3110
X 52.0108 28.6430 61.0110
X 52.0108 28.6430 61.7110
X 52.0108 28.6430 62.4110
X 52.0108 28.6430 63.1110
X 52.7108 28.6430 47.0110
X 52.7108 28.6430 47.7110
X 52.7108 28.6430 48.4110
X 52.7108 28.6430 49.1110
X 52.7108 28.6430 49.8110
X 52.7108 28.6430 50.5110
X 52.7108 28.6430 51.2110
X 52.7108 28.6430 51.9110
X 52.7108 28.6430 52.6110
X 52.7108 28.6430 53.3110
X 52.7108 28.6430 54.0110
X 52.7108 28.6430 54.7110
X 52.7108 28.6430 55.4110
X 52.7108 28.6430 56.1110
X 52.7108 28.6430 56.8110
X 52.7108 28.6430 57.5110
X 52.7108 28.6430 58.2110
X 52.7108 28.6430 58.9110
X 52.7108 28.6430 59.6110
X 52.7108 28.6430 60.3110
X 52.7108 28.6430 61.0110
X 52.7108 28.6430 61.7110
X 52.7108 28.6430 62.4110
X 52.7108 28.6430 63.1110
X 52.7108 28.6430 63.8110
X 53.4108 28.6430 47.0110
X 53.4108 28.6430 47.7110
X 53.4108 28.6430 48.4110
X 53.4108 28.6430 49.1110
X 53.4108 28.6430 49.8110
X 53.4108 28.6430 50.5110
X 53.4108 28.6430 51.2110
X 53.4108 28.6430 51.9110
X 53.4108 28.6430 52.6110
X 53.4108 28.6430 53.3110
X 53.4108 28.6430 54.0110
X 53.4108 28.6430 54.7110
X 53.4108 28.6430 55.4110
X 53.4108 28.6430 56.1110
X 53.4108 28.6430 56.8110
X 53.4108 28.6430 57.5110
X 53.4108 28.6430 58.2110
X 53.4108 28.6430 58.9110
X 53.4108 28.6430 59.6110
X 53.4108 28.6430 60.3110
X 53.4108 28.6430 61.0110
X 53.4108 28.6430 61.7110
X 53.4108 28.6430 62.4110
X 53.4108 28.6430 63.1110
X 53.4108 28.6430 63.8110
X 54.1108 28.6430 47.0110
X 54.1108 28.6430 47.7110
X 54.1108 28.6430 48.4110
X 54.1108 28.6430 49.1110
X 54.1108 28.6430 49.8110
X 54.1108 28.6430 50.5110
X 54.1108 28.6430 51.2110
X 54.1108 28.6430 51.9110
X 54.1108 28.6430 52.6110
X 54.1108 28.6430 53.3110
X 54.1108 28.6430 54.0110
X 54.1108 28.6430 54.7110
X 54.1108 28.6430 55.4110
X 54.1108 28.6430 56.1110
X 54.1108 28.6430 56.8110
X 54.1108 28.6430 57.5110
X 54.1108 28.6430 58.2110
X 54.1108 28.6430 58.9110
X 54.1108 28.6430 59.6110
X 54.1108 28.6430 60.3110
X 54.1108 28.6430 61.0110
X 54.1108 28.6430 61.7110
X 54.1108 28.6430 62.4110
X 54.1108 28.6430 63.1110
X 54.1108 28.6430 63.8110
X 54.1108 28.6430 64.5110
X 54.8108 28.6430 47.0110
X 54.8108 28.6430 47.7110
X 54.8108 28.6430 48.4110
X 54.8108 28.6430 49.1110
X 54.8108 28.6430 49.8110
X 54.8108 28.6430 50.5110
X 54.8108 28.6430 51.2110
X 54.8108 28.6430 51.9110
X 54.8108 28.6430 52.6110
X 54.8108 28.6430 53.3110
X 54.8108 28.6430 54.0110
X 54.8108 28.6430 54.7110
X 54.8108 28.6430 55.4110
X 54.8108 28.6430 56.1110
X 54.8108 28.6430 56.8110
X 54.8108 28.6430 57.5110
X 54.8108 28.6430 58.2110
X 54.8108 28.6430 58.9110
X 54.8108 28.6430 59.6110
X 54.8108 28.6430 60.3110
X 54.8108 28.6430 61.0110
X 54.8108 28.6430 61.7110
X 54.8108 28.6430 62.4110
X 54.8108 28.6430 63.1110
X 54.8108 28.6430 63.8110
X 54.8108 28.6430 64.5110
X 55.5108 28.6430 46.3110
X 55.5108 28.6430 47.0110
X 55.5108 28.6430 47.7110
X 55.5108 28.6430 48.4110
X 55.5108 28.6430 49.1110
X 55.5108 28.6430 49.8110
X 55.5108 28.6430 50.5110
X 55.5108 28.6430 51.2110
X 55.5108 28.6430 51.9110
X 55.5108 28.6430 52.6110
X 55.5108 28.6430 53.3110
X 55.5108 28.6430 54.0110
X 55.5108 28.6430 54.7110
X 55.5108 28.6430 55.4110
X 55.5108 28.6430 56.1110
X 55.5108 28.6430 56.8110
X 55.5108 28.6430 57.5110
X 55.5108 28.6430 58.2110
X 55.5108 28.6430 58.9110
X 55.5108 28.6430 59.6110
X 55.5108 28.6430 60.3110
X 55.5108 28.6430 61.0110
X 55.5108 28.6430 61.7110
X 55.5108 28.6430 62.4110
X 55.5108 28.6430 63.1110
X 55.5108 28.6430 63.8110
X 55.5108 28.6430 64.5110
X 56.2108 28.6430 46.3110
X 56.2108 28.6430 47.0110
X 56.2108 28.6430 47.7110
X 56.2108 28.6430 48.4110
X 56.2108 28.6430 49.1110
X 56.2108 28.6430 49.8110
X 56.2108 28.6430 50.5110
X 56.2108 28.6430 51.2110
X 56.2108 28.6430 51.9110
X 56.2108 28.6430 52.6110
X 56.2108 28.6430 53.3110
X 56.2108 28.6430 54.0110
X 56.2108 28.6430 54.7110
X 56.2108 28.6430 55.4110
X 56.2108 28.6430 56.1110
X 56.2108 28.6430 56.8110
X 56.2108 28.6430 57.5110
X 56.2108 28.6430 58.2110
X 56.2108 28.6430 58.9110
X 56.2108 28.6430 59.6110
X 56.2108 28.6430 60.3110
X 56.2108 28.6430 61.0110
X 56.2108 28.6430 61.7110
X 56.2108 28.6430 62.4110
X 56.2108 28.6430 63.1110
X 56.2108 28.6430 63.8110
X 56.2108 28.6430 64.5110
X 56.9108 28.6430 46.3110
X 56.9108 28.6430 47.0110
X 56.9108 28.6430 47.7110
X 56.9108 28.6430 48.4110
X 56.9108 28.6430 49.1110
X 56.9108 28.6430 49.8110
X 56.9108 28.6430 50.5110
X 56.9108 28.6430 51.2110
X 56.9108 28.6430 51.9110
X 56.9108 28.6430 52.6110
X 56.9108 28.6430 53.3110
X 56.9108 28.6430 54.0110
X 56.9108 28.6430 54.7110
X 56.9108 28.6430 55.4110
X 56.9108 28.6430 56.1110
X 56.9108 28.6430 56.8110
X 56.9108 28.6430 57.5110
X 56.9108 28.6430 58.2110
X 56.9108 28.6430 58.9110
X 56.9108 28.6430 59.6110
X 56.9108 28.6430 60.3110
X 56.9108 28.6430 61.0110
X 56.9108 28.6430 61.7110
X 56.9108 28.6430 62.4110
X 56.9108 28.6430 63.1110
X 56.9108 28.6430 63.8110
X 56.9108 28.6430 64.5110
X 57.6108 28.6430 46.3110
X 57.6108 28.6430 47.0110
X 57.6108 28.6430 47.7110
X 57.6108 28.6430 48.4110
X 57.6108 28.6430 49.1110
X 57.6108 28.6430 49.8110
X 57.6108 28.6430 50.5110
X 57.6108 28.6430 51.2110
X 57.6108 28.6430 51.9110
X 57.6108 28.6430 52.6110
X 57.6108 28.6430 53.3110
X 57.6108 28.6430 54.0110
X 57.6108 28.6430 57.5110
X 57.6108 28.6430 58.2110
X 57.6108 28.6430 58.9110
X 57.6108 28.6430 59.6110
X 57.6108 28.6430 60.3110
X 57.6108 28.6430 61.0110
X 57.6108 28.6430 61.7110
X 57.6108 28.6430 62.4110
X 57.6108 28.6430 63.1110
X 57.6108 28.6430 63.8110
X 57.6108 28.6430 64.5110
X 58.3108 28.6430 46.3110
X 58.3108 28.6430 47.0110
X 58.3108 28.6430 47.7110
X 58.3108 28.6430 48.4110
X 58.3108 28.6430 49.1110
X 58.3108 28.6430 49.8110
X 58.3108 28.6430 50.5110
X 58.3108 28.6430 51.2110
X 58.3108 28.6430 51.9110
X 58.3108 28.6430 52.6110
X 58.3108 28.6430 53.3110
X 58.3108 28.6430 54.0110
X 58.3108 28.6430 58.2110
X 58.3108 28.6430 58.9110
X 58.3108 28.6430 59.6110
X 58.3108 28.6430 60.3110
X 58.3108 28.6430 61.0110
X 58.3108 28.6430 61.7110
X 58.3108 28.6430 62.4110
X 58.3108 28.6430 63.1110
X 58.3108 28.6430 63.8110
X 58.3108 28.6430 64.5110
X 59.0108 28.6430 45.6110
X 59.0108 28.6430 46.3110
X 59.0108 28.6430 47.0110
X 59.0108 28.6430 47.7110
X 59.0108 28.6430 48.4110
X 59.0108 28.6430 49.1110
X 59.0108 28.6430 49.8110
X 59.0108 28.6430 50.5110
X 59.0108 28.6430 51.2110
X 59.0108 28.6430 51.9110
X 59.0108 28.6430 52.6110
X 59.0108 28.6430 53.3110
X 59.0108 28.6430 58.2110
X 59.0108 28.6430 58.9110
X 59.0108 28.6430 59.6110
X 59.0108 28.6430 60.3110
X 59.0108 28.6430 61.0110
X 59.0108 28.6430 61.7110
X 59.0108 28.6430 62.4110
X 59.0108 28.6430 63.1110
X 59.0108 28.6430 63.8110
X 59.0108 28.6430 64.5110
X 59.7108 28.6430 45.6110
X 59.7108 28.6430 46.3110
X 59.7108 28.6430 47.0110
X 59.7108 28.6430 47.7110
X 59.7108 28.6430 48.4110
X 59.7108 28.6430 49.1110
X 59.7108 28.6430 49.8110
X 59.7108 28.6430 50.5110
X 59.7108 28.6430 51.2110
X 59.7108 28.6430 51.9110
X 59.7108 28.6430 52.6110
X 59.7108 28.6430 53.3110
X 59.7108 28.6430 58.2110
X 59.7108 28.6430 58.9110
X 59.7108 28.6430 59.6110
X 59.7108 28.6430 60.3110
X 59.7108 28.6430 61.0110
X 59.7108 28.6430 61.7110
X 59.7108 28.6430 62.4110
X 59.7108 28.6430 63.1110
X 59.7108 28.6430 63.8110
X 59.7108 28.6430 64.5110
X 60.4108 28.6430 45.6110
X 60.4108 28.6430 46.3110
X 60.4108 28.6430 47.0110
X 60.4108 28.6430 47.7110
X 60.4108 28.6430 48.4110
X 60.4108 28.6430 49.1110
X 60.4108 28.6430 49.8110
X 60.4108 28.6430 50.5110
X 60.4108 28.6430 51.2110
X 60.4108 28.6430 51.9110
X 60.4108 28.6430 52.6110
X 60.4108 28.6430 57.5110
X 60.4108 28.6430 58.2110
X 60.4108 28.6430 58.9110
X 60.4108 28.6430 59.6110
X 60.4108 28.6430 60.3110
X 60.4108 28.6430 61.0110
X 60.4108 28.6430 61.7110
X 60.4108 28.6430 62.4110
X 60.4108 28.6430 63.1110
X 60.4108 28.6430 63.8110
X 60.4108 28.6430 64.5110
X 61.1108 28.6430 45.6110
X 61.1108 28.6430 46.3110
X 61.1108 28.6430 47.0110
X 61.1108 28.6430 47.7110
X 61.1108 28.6430 48.4110
X 61.1108 28.6430 49.1110
X 61.1108 28.6430 49.8110
X 61.1108 28.6430 50.5110
X 61.1108 28.6430 51.2110
X 61.1108 28.6430 51.9110
X 61.1108 28.6430 57.5110
X 61.1108 28.6430 58.2110
X 61.1108 28.6430 58.9110
X 61.1108 28.6430 59.6110
X 61.1108 28.6430 60.3110
X 61.1108 28.6430 61.0110
X 61.1108 28.6430 61.7110
X 61.1108 28.6430 62.4110
X 61.1108 28.6430 63.1110
X 61.1108 28.6430 63.8110
X 61.1108 28.6430 64.5110
X 61.8108 28.6430 45.6110
X 61.8108 28.6430 46.3110
X 61.8108 28.6430 47.0110
X 61.8108 28.6430 47.7110
X 61.8108 28.6430 48.4110
X 61.8108 28.6430 49.1110
X 61.8108 28.6430 49.8110
X 61.8108 28.6430 50.5110
X 61.8108 28.6430 51.2110
X 61.8108 28.6430 51.9110
X 61.8108 28.6430 57.5110
X 61.8108 28.6430 58.2110
X 61.8108 28.6430 58.9110
X 61.8108 28.6430 59.6110
X 61.8108 28.6430 60.3110
X 61.8108 28.6430 61.0110
X 61.8108 28.6430 61.7110
X 61.8108 28.6430 62.4110
X 61.8108 28.6430 63.1110
X 61.8108 28.6430 63.8110
X 61.8108 28.6430 64.5110
X 62.5108 28.6430 45.6110
X 62.5108 28.6430 46.3110
X 62.5108 28.6430 47.0110
X 62.5108 28.6430 47.7110
X 62.5108 28.6430 48.4110
X 62.5108 28.6430 49.1110
X 62.5108 28.6430 49.8110
X 62.5108 28.6430 50.5110
X 62.5108 28.6430 51.2110
X 62.5108 28.6430 51.9110
X 62.5108 28.6430 52.6110
X 62.5108 28.6430 53.3110
X 62.5108 28.6430 57.5110
X 62.5108 28.6430 58.2110
X 62.5108 28.6430 58.9110
X 62.5108 28.6430 59.6110
X 62.5108 28.6430 60.3110
X 62.5108 28.6430 61.0110
X 62.5108 28.6430 61.7110
X 62.5108 28.6430 62.4110
X 62.5108 28.6430 63.1110
X 62.5108 28.6430 63.8110
X 62.5108 28.6430 64.5110
X 63.2108 28.6430 45.6110
X 63.2108 28.6430 46.3110
X 63.2108 28.6430 47.0110
X 63.2108 28.6430 47.7110
X 63.2108 28.6430 48.4110
X 63.2108 28.6430 49.1110
X 63.2108 28.6430 49.8110
X 63.2108 28.6430 50.5110
X 63.2108 28.6430 51.2110
X 63.2108 28.6430 51.9110
X 63.2108 28.6430 52.6110
X 63.2108 28.6430 53.3110
X 63.2108 28.6430 54.0110
X 63.2108 28.6430 56.8110
X 63.2108 28.6430 57.5110
X 63.2108 28.6430 58.2110
X 63.2108 28.6430 58.9110
X 63.2108 28.6430 59.6110
X 63.2108 28.6430 60.3110
X 63.2108 28.6430 61.0110
X 63.2108 28.6430 61.7110
X 63.2108 28.6430 62.4110
X 63.2108 28.6430 63.1110
X 63.2108 28.6430 63.8110
X 63.2108 28.6430 64.5110
X 63.9108 28.6430 45.6110
X 63.9108 28.6430 46.3110
X 63.9108 28.6430 47.0110
X 63.9108 28.6430 47.7110
X 63.9108 28.6430 48.4110
X 63.9108 28.6430 49.1110
X 63.9108 28.6430 49.8110
X 63.9108 28.6430 50.5110
X 63.9108 28.6430 51.2110
X 63.9108 28.6430 51.9110
X 63.9108 28.6430 52.6110
X 63.9108 28.6430 53.3110
X 63.9108 28.6430 54.0110
X 63.9108 28.6430 54.7110
X 63.9108 28.6430 55.4110
X 63.9108 28.6430 56.1110
X 63.9108 28.6430 56.8110
X 63.9108 28.6430 57.5110
X 63.9108 28.6430 58.2110
X 63.9108 28.6430 58.9110
X 63.9108 28.6430 59.6110
X 63.9108 28.6430 60.3110
X 63.9108 28.6430 61.0110
X 63.9108 28.6430 61.7110
X 63.9108 28.6430 62.4110
X 63.9108 28.6430 63.1110
X 63.9108 28.6430 63.8110
X 64.6108 28.6430 46.3110
X 64.6108 28.6430 47.0110
X 64.6108 28.6430 47.7110
X 64.6108 28.6430 48.4110
X 64.6108 28.6430 49.1110
X 64.6108 28.6430 49.8110
X 64.6108 28.6430 50.5110
X 64.6108 28.6430 51.2110
X 64.6108 28.6430 51.9110
X 64.6108 28.6430 52.6110
X 64.6108 28.6430 53.3110
X 64.6108 28.6430 54.0110
X 64.6108 28.6430 54.7110
X 64.6108 28.6430 55.4110
X 64.6108 28.6430 56.1110
X 64.6108 28.6430 56.8110
X 64.6108 28.6430 57.5110
X 64.6108 28.6430 58.2110
X 64.6108 28.6430 58.9110
X 64.6108 28.6430 59.6110
X 64.6108 28.6430 60.3110
X 64.6108 28.6430 61.0110
X 64.6108 28.6430 61.7110
X 64.6108 28.6430 62.4110
X 64.6108 28.6430 63.1110
X 64.6108 28.6430 63.8110
X 65.3108 28.6430 46.3110
X 65.3108 28.6430 47.0110
X 65.3108 28.6430 47.7110
X 65.3108 28.6430 48.4110
X 65.3108 28.6430 49.1110
X 65.3108 28.6430 49.8110
X 65.3108 28.6430 50.5110
X 65.3108 28.6430 51.2110
X 65.3108 28.6430 51.9110
X 65.3108 28.6430 52.6110
X 65.3108 28.6430 53.3110
X 65.3108 28.6430 54.0110
X 65.3108 28.6430 54.7110
X 65.3108 28.6430 55.4110
X 65.3108 28.6430 56.1110
X 65.3108 28.6430 56.8110
X 65.3108 28.6430 57.5110
X 65.3108 28.6430 58.2110
X 65.3108 28.6430 58.9110
X 65.3108 28.6430 59.6110
X 65.3108 28.6430 60.3110
X 65.3108 28.6430 61.0110
X 65.3108 28.6430 61.7110
X 65.3108 28.6430 62.4110
X 65.3108 28.6430 63.1110
X 66.0108 28.6430 47.0110
X 66.0108 28.6430 47.7110
X 66.0108 28.6430 48.4110
X 66.0108 28.6430 49.1110
X 66.0108 28.6430 49.8110
X 66.0108 28.6430 50.5110
X 66.0108 28.6430 51.2110
X 66.0108 28.6430 51.9110
X 66.0108 28.6430 52.6110
X 66.0108 28.6430 53.3110
X 66.0108 28.6430 54.0110
X 66.0108 28.6430 54.7110
X 66.0108 28.6430 55.4110
X 66.0108 28.6430 56.1110
X 66.0108 28.6430 56.8110
X 66.0108 28.6430 57.5110
X 66.0108 28.6430 58.2110
X 66.0108 28.6430 58.9110
X 66.0108 28.6430 59.6110
X 66.0108 28.6430 60.3110
X 66.0108 28.6430 61.0110
X 66.0108 28.6430 61.7110
X 66.0108 28.6430 62.4110
X 66.7108 28.6430 47.0110
X 66.7108 28.6430 47.7110
X 66.7108 28.6430 48.4110
X 66.7108 28.6430 49.1110
X 66.7108 28.6430 49.8110
X 66.7108 28.6430 50.5110
X 66.7108 28.6430 51.2110
X 66.7108 28.6430 51.9110
X 66.7108 28.6430 52.6110
X 66.7108 28.6430 53.3110
X 66.7108 28.6430 54.0110
X 66.7108 28.6430 54.7110
X 66.7108 28.6430 55.4110
X 66.7108 28.6430 56.1110
X 66.7108 28.6430 56.8110
X 66.7108 28.6430 57.5110
X 66.7108 28.6430 58.2110
X 66.7108 28.6430 58.9110
X 66.7108 28.6430 59.6110
X 66.7108 28.6430 60.3110
X 66.7108 28.6430 61.0110
X 66.7108 28.6430 61.7110
X 66.7108 28.6430 62.4110
X 67.4108 28.6430 47.7110
X 67.4108 28.6430 48.4110
X 67.4108 28.6430 49.1110
X 67.4108 28.6430 49.8110
X 67.4108 28.6430 50.5110
X 67.4108 28.6430 51.2110
X 67.4108 28.6430 51.9110
X 67.4108 28.6430 52.6110
X 67.4108 28.6430 53.3110
X 67.4108 28.6430 54.0110
X 67.4108 28.6430 54.7110
X 67.4108 28.6430 55.4110
X 67.4108 28.6430 56.1110
X 67.4108 28.6430 56.8110
X 67.4108 28.6430 57.5110
X 67.4108 28.6430 58.2110
X 67.4108 28.6430 58.9110
X 67.4108 28.6430 59.6110
X 67.4108 28.6430 60.3110
X 67.4108 28.6430 61.0110
X 67.4108 28.6430 61.7110
X 68.1108 28.6430 48.4110
X 68.1108 28.6430 49.1110
X 68.1108 28.6430 49.8110
X 68.1108 28.6430 50.5110
X 68.1108 28.6430 51.2110
X 68.1108 28.6430 51.9110
X 68.1108 28.6430 52.6110
X 68.1108 28.6430 53.3110
X 68.1108 28.6430 54.0110
X 68.1108 28.6430 54.7110
X 68.1108 28.6430 55.4110
X 68.1108 28.6430 56.1110
X 68.1108 28.6430 56.8110
X 68.1108 28.6430 57.5110
X 68.1108 28.6430 58.2110
X 68.1108 28.6430 58.9110
X 68.1108 28.6430 59.6110
X 68.1108 28.6430 60.3110
X 68.1108 28.6430 61.0110
X 68.8108 28.6430 49.8110
X 68.8108 28.6430 50.5110
X 68.8108 28.6430 51.2110
X 68.8108 28.6430 51.9110
X 68.8108 28.6430 52.6110
X 68.8108 28.6430 53.3110
X 68.8108 28.6430 54.0110
X 68.8108 28.6430 54.7110
X 68.8108 28.6430 55.4110
X 68.8108 28.6430 56.1110
X 68.8108 28.6430 56.8110
X 68.8108 28.6430 57.5110
X 68.8108 28.6430 58.2110
X 68.8108 28.6430 58.9110
X 68.8108 28.6430 59.6110
X 69.5108 28.6430 51.2110
X 69.5108 28.6430 51.9110
X 69.5108 28.6430 52.6110
X 69.5108 28.6430 53.3110
X 69.5108 28.6430 54.0110
X 69.5108 28.6430 54.7110
X 69.5108 28.6430 55.4110
X 69.5108 28.6430 56.1110
X 69.5108 28.6430 56.8110
X 69.5108 28.6430 57.5110
X 69.5108 28.6430 58.2110
X 69.5108 28.6430 58.9110
X 70.2108 28.6430 55.4110
X 70.2108 28.6430 56.1110
X 47.1108 29.3430 53.3110
X 47.1108 29.3430 54.0110
X 47.1108 29.3430 54.7110
X 47.1108 29.3430 55.4110
X 47.1108 29.3430 56.1110
X 47.1108 29.3430 56.8110
X 47.1108 29.3430 57.5110
X 47.8108 29.3430 51.2110
X 47.8108 29.3430 51.9110
X 47.8108 29.3430 52.6110
X 47.8108 29.3430 53.3110
X 47.8108 29.3430 54.0110
X 47.8108 29.3430 54.7110
X 47.8108 29.3430 55.4110
X 47.8108 29.3430 56.1110
X 47.8108 29.3430 56.8110
X 47.8108 29.3430 57.5110
X 47.8108 29.3430 58.2110
X 47.8108 29.3430 58.9110
X 48.5108 29.3430 50.5110
X 48.5108 29.3430 51.2110
X 48.5108 29.3430 51.9110
X 48.5108 29.3430 52.6110
X 48.5108 29.3430 53.3110
X 48.5108 29.3430 54.0110
X 48.5108 29.3430 54.7110
X 48.5108 29.3430 55.4110
X 48.5108 29.3430 56.1110
X 48.5108 29.3430 56.8110
X 48.5108 29.3430 57.5110
X 48.5108 29.3430 58.2110
X 48.5108 29.3430 58.9110
X 48.5108 29.3430 59.6110
X 49.2108 29.3430 49.1110
X 49.2108 29.3430 49.8110
X 49.2108 29.3430 50.5110
X 49.2108 29.3430 51.2110
X 49.2108 29.3430 51.9110
X 49.2108 29.3430 52.6110
X 49.2108 29.3430 53.3110
X 49.2108 29.3430 54.0110
X 49.2108 29.3430 54.7110
X 49.2108 29.3430 55.4110
X 49.2108 29.3430 56.1110
X 49.2108 29.3430 56.8110
X 49.2108 29.3430 57.5110
X 49.2108 29.3430 58.2110
X 49.2108 29.3430 58.9110
X 49.2108 29.3430 59.6110
X 49.2108 29.3430 60.3110
X 49.2108 29.3430 61.0110
X 49.9108 29.3430 49.1110
X 49.9108 29.3430 49.8110
X 49.9108 29.3430 50.5110
X 49.9108 29.3430 51.2110
X 49.9108 29.3430 51.9110
X 49.9108 29.3430 52.6110
X 49.9108 29.3430 53.3110
X 49.9108 29.3430 54.0110
X 49.9108 29.3430 54.7110
X 49.9108 29.3430 55.4110
X 49.9108 29.3430 56.1110
X 49.9108 29.3430 56.8110
X 49.9108 29.3430 57.5110
X 49.9108 29.3430 58.2110
X 49.9108 29.3430 58.9110
X 49.9108 29.3430 59.6110
X 49.9108 29.3430 60.3110
X 49.9108 29.3430 61.0110
X 49.9108 29.3430 61.7110
X 50.6108 29.3430 48.4110
X 50.6108 29.3430 49.1110
X 50.6108 29.3430 49.8110
X 50.6108 29.3430 50.5110
X 50.6108 29.3430 51.2110
X 50.6108 29.3430 51.9110
X 50.6108 29.3430 52.6110
X 50.6108 29.3430 53.3110
X 50.6108 29.3430 54.0110
X 50.6108 29.3430 54.7110
X 50.6108 29.3430 55.4110
X 50.6108 29.3430 56.1110
X 50.6108 29.3430 56.8110
X 50.6108 29.3430 57.5110
X 50.6108 29.3430 58.2110
X 50.6108 29.3430 58.9110
X 50.6108 29.3430 59.6110
X 50.6108 29.3430 60.3110
X 50.6108 29.3430 61.0110
X 50.6108 29.3430 61.7110
X 50.6108 29.3430 62.4110
X 51.3108 29.3430 47.7110
X 51.3108 29.3430 48.4110
X 51.3108 29.3430 49.1110
X 51.3108 29.3430 49.8110
X 51.3108 29.3430 50.5110
X 51.3108 29.3430 51.2110
X 51.3108 29.3430 51.9110
X 51.3108 29.3430 52.6110
X 51.3108 29.3430 53.3110
X 51.3108 29.3430 54.0110
X 51.3108 29.3430 54.7110
X 51.3108 29.3430 55.4110
X 51.3108 29.3430 56.1110
X 51.3108 29.3430 56.8110
X 51.3108 29.3430 57.5110
X 51.3108 29.3430 58.2110
X 51.3108 29.3430 58.9110
X 51.3108 29.3430 59.6110
X 51.3108 29.3430 60.3110
X 51.3108 29.3430 61.0110
X 51.3108 29.3430 61.7110
X 51.3108 29.3430 62.4110
X 51.3108 29.3430 63.1110
X 52.0108 29.3430 47.0110
X 52.0108 29.3430 47.7110
X 52.0108 29.3430 48.4110
X 52.0108 29.3430 49.1110
X 52.0108 29.3430 49.8110
X 52.0108 29.3430 50.5110
X 52.0108 29.3430 51.2110
X 52.0108 29.3430 51.9110
X 52.0108 29.3430 52.6110
X 52.0108 29.3430 53.3110
X 52.0108 29.3430 54.0110
X 52.0108 29.3430 54.7110
X 52.0108 29.3430 55.4110
X 52.0108 29.3430 56.1110
X 52.0108 29.3430 56.8110
X 52.0108 29.3430 57.5110
X 52.0108 29.3430 58.2110
X 52.0108 29.3430 58.9110
X 52.0108 29.3430 59.6110
X 52.0108 29.3430 60.3110
X 52.0108 29.3430 61.0110
X 52.0108 29.3430 61.7110
X 52.0108 29.3430 62.4110
X 52.0108 29.3430 63.1110
X 52.7108 29.3430 47.0110
X 52.7108 29.3430 47.7110
X 52.7108 29.3430 48.4110
X 52.7108 29.3430 49.1110
X 52.7108 29.3430 49.8110
X 52.7108 29.3430 50.5110
X 52.7108 29.3430 51.2110
X 52.7108 29.3430 51.9110
X 52.7108 29.3430 52.6110
X 52.7108 29.3430 53.3110
X 52.7108 29.3430 54.0110
X 52.7108 29.3430 54.7110
X 52.7108 29.3430 55.4110
X 52.7108 29.3430 56.1110
X 52.7108 29.3430 56.8110
X 52.7108 29.3430 57.5110
X 52.7108 29.3430 58.2110
X 52.7108 29.3430 58.9110
X 52.7108 29.3430 59.6110
X 52.7108 29.3430 60.3110
X 52.7108 29.3430 61.0110
X 52.7108 29.3430 61.7110
X 52.7108 29.3430 62.4110
X 52.7108 29.3430 63.1110
X 52.7108 29.3430 63.8110
X 53.4108 29.3430 47.0110
X 53.4108 29.3430 47.7110
X 53.4108 29.3430 48.4110
X 53.4108 29.3430 49.1110
X 53.4108 29.3430 49.8110
X 53.4108 29.3430 50.5110
X 53.4108 29.3430 51.2110
X 53.4108 29.3430 51.9110
X 53.4108 29.3430 52.6110
X 53.4108 29.3430 53.3110
X 53.4108 29.3430 54.0110
X 53.4108 29.3430 54.7110
X 53.4108 29.3430 55.4110
X 53.4108 29.3430 56.1110
X 53.4108 29.3430 56.8110
X 53.4108 29.3430 57.5110
X 53.4108 29.3430 58.2110
X 53.4108 29.3430 58.9110
X 53.4108 29.3430 59.6110
X 53.4108 29.3430 60.3110
X 53.4108 29.3430 61.0110
X 53.4108 29.3430 61.7110
X 53.4108 29.3430 62.4110
X 53.4108 29.3430 63.1110
X 53.4108 29.3430 63.8110
X 54.1108 29.3430 46.3110
X 54.1108 29.3430 47.0110
X 54.1108 29.3430 47.7110
X 54.1108 29.3430 48.4110
X 54.1108 29.3430 49.1110
X 54.1108 29.3430 49.8110
X 54.1108 29.3430 50.5110
X 54.1108 29.3430 51.2110
X 54.1108 29.3430 51.9110
X 54.1108 29.3430 52.6110
X 54.1108 29.3430 53.3110
X 54.1108 29.3430 54.0110
X 54.1108 29.3430 54.7110
X 54.1108 29.3430 55.4110
X 54.1108 29.3430 56.1110
X 54.1108 29.3430 56.8110
X 54.1108 29.3430 57.5110
X 54.1108 29.3430 58.2110
X 54.1108 29.3430 58.9110
X 54.1108 29.3430 59.6110
X 54.1108 29.3430 60.3110
X 54.1108 29.3430 61.0110
X 54.1108 29.3430 61.7110
X 54.1108 29.3430 62.4110
X 54.1108 29.3430 63.1110
X 54.1108 29.3430 63.8110
X 54.1108 29.3430 64.5110
X 54.8108 29.3430 46.3110
X 54.8108 29.3430 47.0110
X 54.8108 29.3430 47.7110
X 54.8108 29.3430 48.4110
X 54.8108 29.3430 49.1110
X 54.8108 29.3430 49.8110
X 54.8108 29.3430 50.5110
X 54.8108 29.3430 51.2110
X 54.8108 29.3430 51.9110
X 54.8108 29.3430 52.6110
X 54.8108 29.3430 56.1110
X 54.8108 29.3430 56.8110
X 54.8108 29.3430 57.5110
X 54.8108 29.3430 58.2110
X 54.8108 29.3430 58.9110
X 54.8108 29.3430 59.6110
X 54.8108 29.3430 60.3110
X 54.8108 29.3430 61.0110
X 54.8108 29.3430 61.7110
X 54.8108 29.3430 62.4110
X 54.8108 29.3430 63.1110
X 54.8108 29.3430 63.8110
X 54.8108 29.3430 64.5110
X 55.5108 29.3430 46.3110
X 55.5108 29.3430 47.0110
X 55.5108 29.3430 47.7110
X 55.5108 29.3430 48.4110
X 55.5108 29.3430 49.1110
X 55.5108 29.3430 49.8110
X 55.5108 29.3430 50.5110
X 55.5108 29.3430 51.2110
X 55.5108 29.3430 51.9110
X 55.5108 29.3430 52.6110
X 55.5108 29.3430 56.8110
X 55.5108 29.3430 57.5110
X 55.5108 29.3430 58.2110
X 55.5108 29.3430 58.9110
X 55.5108 29.3430 59.6110
X 55.5108 29.3430 60.3110
X 55.5108 29.3430 61.0110
X 55.5108 29.3430 61.7110
X 55.5108 29.3430 62.4110
X 55.5108 29.3430 63.1110
X 55.5108 29.3430 63.8110
X 55.5108 29.3430 64.5110
X 56.2108 29.3430 46.3110
X 56.2108 29.3430 47.0110
X 56.2108 29.3430 47.7110
X 56.2108 29.3430 48.4110
X 56.2108 29.3430 49.1110
X 56.2108 29.3430 49.8110
X 56.2108 29.3430 50.5110
X 56.2108 29.3430 51.2110
X 56.2108 29.3430 51.9110
X 56.2108 29.3430 58.2110
X 56.2108 29.3430 58.9110
X 56.2108 29.3430 59.6110
X 56.2108 29.3430 60.3110
X 56.2108 29.3430 61.0110
X 56.2108 29.3430 61.7110
X 56.2108 29.3430 62.4110
X 56.2108 29.3430 63.1110
X 56.2108 29.3430 63.8110
X 56.2108 29.3430 64.5110
X 56.2108 29.3430 65.2110
X 56.9108 29.3430 46.3110
X 56.9108 29.3430 47.0110
X 56.9108 29.3430 47.7110
X 56.9108 29.3430 48.4110
X 56.9108 29.3430 49.1110
X 56.9108 29.3430 49.8110
X 56.9108 29.3430 50.5110
X 56.9108 29.3430 51.2110
X 56.9108 29.3430 51.9110
X 56.9108 29.3430 52.6110
X 56.9108 29.3430 58.2110
X 56.9108 29.3430 58.9110
X 56.9108 29.3430 59.6110
X 56.9108 29.3430 60.3110
X 56.9108 29.3430 61.0110
X 56.9108 29.3430 61.7110
X 56.9108 29.3430 62.4110
X 56.9108 29.3430 63.1110
X 56.9108 29.3430 63.8110
X 56.9108 29.3430 64.5110
X 56.9108 29.3430 65.2110
X 57.6108 29.3430 46.3110
X 57.6108 29.3430 47.0110
X 57.6108 29.3430 47.7110
X 57.6108 29.3430 48.4110
X 57.6108 29.3430 49.1110
X 57.6108 29.3430 49.8110
X 57.6108 29.3430 50.5110
X 57.6108 29.3430 51.2110
X 57.6108 29.3430 51.9110
X 57.6108 29.3430 52.6110
X 57.6108 29.3430 53.3110
X 57.6108 29.3430 58.9110
X 57.6108 29.3430 59.6110
X 57.6108 29.3430 60.3110
X 57.6108 29.3430 61.0110
X 57.6108 29.3430 61.7110
X 57.6108 29.3430 62.4110
X 57.6108 29.3430 63.1110
X 57.6108 29.3430 63.8110
X 57.6108 29.3430 64.5110
X 57.6108 29.3430 65.2110
X 58.3108 29.3430 45.6110
X 58.3108 29.3430 46.3110
X 58.3108 29.3430 47.0110
X 58.3108 29.3430 47.7110
X 58.3108 29.3430 48.4110
X 58.3108 29.3430 49.1110
X 58.3108 29.3430 49.8110
X 58.3108 29.3430 50.5110
X 58.3108 29.3430 51.2110
X 58.3108 29.3430 51.9110
X 58.3108 29.3430 52.6110
X 58.3108 29.3430 58.9110
X 58.3108 29.3430 59.6110
X 58.3108 29.3430 60.3110
X 58.3108 29.3430 61.0110
X 58.3108 29.3430 61.7110
X 58.3108 29.3430 62.4110
X 58.3108 29.3430 63.1110
X 58.3108 29.3430 63.8110
X 58.3108 29.3430 64.5110
X 58.3108 29.3430 65.2110
X 59.0108 29.3430 45.6110
X 59.0108 29.3430 46.3110
X 59.0108 29.3430 47.0110
X 59.0108 29.3430 47.7110
X 59.0108 29.3430 48.4110
X 59.0108 29.3430 49.1110
X 59.0108 29.3430 49.8110
X 59.0108 29.3430 50.5110
X 59.0108 29.3430 51.2110
X 59.0108 29.3430 51.9110
X 59.0108 29.3430 52.6110
X 59.0108 29.3430 58.9110
X 59.0108 29.3430 59.6110
X 59.0108 29.3430 60.3110
X 59.0108 29.3430 61.0110
X 59.0108 29.3430 61.7110
X 59.0108 29.3430 62.4110
X 59.0108 29.3430 63.1110
X 59.0108 29.3430 63.8110
X 59.0108 29.3430 64.5110
X 59.0108 29.3430 65.2110
X 59.7108 29.3430 45.6110
X 59.7108 29.3430 46.3110
X 59.7108 29.3430 47.0110
X 59.7108 29.3430 47.7110
X 59.7108 29.3430 48.4110
X 59.7108 29.3430 49.1110
X 59.7108 29.3430 49.8110
X 59.7108 29.3430 50.5110
X 59.7108 29.3430 51.2110
X 59.7108 29.3430 51.9110
X 59.7108 29.3430 58.9110
X 59.7108 29.3430 59.6110
X 59.7108 29.3430 60.3110
X 59.7108 29.3430 61.0110
X 59.7108 29.3430 61.7110
X 59.7108 29.3430 62.4110
X 59.7108 29.3430 63.1110
X 59.7108 29.3430 63.8110
X 59.7108 29.3430 64.5110
X 59.7108 29.3430 65.2110
X 60.4108 29.3430 44.9110
X 60.4108 29.3430 45.6110
X 60.4108 29.3430 46.3110
X 60.4108 29.3430 47.0110
X 60.4108 29.3430 47.7110
X 60.4108 29.3430 48.4110
X 60.4108 29.3430 49.1110
X 60.4108 29.3430 49.8110
X 60.4108 29.3430 50.5110
X 60.4108 29.3430 51.2110
X 60.4108 29.3430 58.2110
X 60.4108 29.3430 58.9110
X 60.4108 29.3430 59.6110
X 60.4108 29.3430 60.3110
X 60.4108 29.3430 61.0110
X 60.4108 29.3430 61.7110
X 60.4108 29.3430 62.4110
X 60.4108 29.3430 63.1110
X 60.4108 29.3430 63.8110
X 60.4108 29.3430 64.5110
X 60.4108 29.3430 65.2110
X 61.1108 29.3430 44.9110
X 61.1108 29.3430 45.6110
X 61.1108 29.3430 46.3110
X 61.1108 29.3430 47.0110
X 61.1108 29.3430 47.7110
X 61.1108 29.3430 48.4110
X 61.1108 29.3430 49.1110
X 61.1108 29.3430 49.8110
X 61.1108 29.3430 50.5110
X 61.1108 29.3430 58.2110
X 61.1108 29.3430 58.9110
X 61.1108 29.3430 59.6110
X 61.1108 29.3430 60.3110
X 61.1108 29.3430 61.0110
X 61.1108 29.3430 61.7110
X 61.1108 29.3430 62.4110
X 61.1108 29.3430 63.1110
X 61.1108 29.3430 63.8110
X 61.1108 29.3430 64.5110
X 61.1108 29.3430 65.2110
X 61.8108 29.3430 44.9110
X 61.8108 29.3430 45.6110
X 61.8108 29.3430 46.3110
X 61.8108 29.3430 47.0110
X 61.8108 29.3430 47.7110
X 61.8108 29.3430 48.4110
X 61.8108 29.3430 49.1110
X 61.8108 29.3430 49.8110
X 61.8108 29.3430 50.5110
X 61.8108 29.3430 58.9110
X 61.8108 29.3430 59.6110
X 61.8108 29.3430 60.3110
X 61.8108 29.3430 61.0110
X 61.8108 29.3430 61.7110
X 61.8108 29.3430 62.4110
X 61.8108 29.3430 63.1110
X 61.8108 29.3430 63.8110
X 61.8108 29.3430 64.5110
X 61.8108 29.3430 65.2110
X 62.5108 29.3430 44.9110
X 62.5108 29.3430 45.6110
X 62.5108 29.3430 46.3110
X 62.5108 29.3430 47.0110
X 62.5108 29.3430 47.7110
X 62.5108 29.3430 48.4110
X 62.5108 29.3430 49.1110
X 62.5108 29.3430 49.8110
X 62.5108 29.3430 50.5110
X 62.5108 29.3430 51.2110
X 62.5108 29.3430 58.2110
X 62.5108 29.3430 58.9110
X 62.5108 29.3430 59.6110
X 62.5108 29.3430 60.3110
X 62.5108 29.3430 61.0110
X 62.5108 29.3430 61.7110
X 62.5108 29.3430 62.4110
X 62.5108 29.3430 63.1110
X 62.5108 29.3430 63.8110
X 62.5108 29.3430 64.5110
X 63.2108 29.3430 45.6110
X 63.2108 29.3430 46.3110
X 63.2108 29.3430 47.0110
X 63.2108 29.3430 47.7110
X 63.2108 29.3430 48.4110
X 63.2108 29.3430 49.1110
X 63.2108 29.3430 49.8110
X 63.2108 29.3430 50.5110
X 63.2108 29.3430 51.2110
X 63.2108 29.3430 58.2110
X 63.2108 29.3430 58.9110
X 63.2108 29.3430 59.6110
X 63.2108 29.3430 60.3110
X 63.2108 29.3430 61.0110
X 63.2108 29.3430 61.7110
X 63.2108 29.3430 62.4110
X 63.2108 29.3430 63.1110
X 63.2108 29.3430 63.8110
X 63.2108 29.3430 64.5110
X 63.9108 29.3430 45.6110
X 63.9108 29.3430 46.3110
X 63.9108 29.3430 47.0110
X 63.9108 29.3430 47.7110
X 63.9108 29.3430 48.4110
X 63.9108 29.3430 49.1110
X 63.9108 29.3430 49.8110
X 63.9108 29.3430 50.5110
X 63.9108 29.3430 51.2110
X 63.9108 29.3430 51.9110
X 63.9108 29.3430 52.6110
X 63.9108 29.3430 53.3110
X 63.9108 29.3430 57.5110
X 63.9108 29.3430 58.2110
X 63.9108 29.3430 58.9110
X 63.9108 29.3430 59.6110
X 63.9108 29.3430 60.3110
X 63.9108 29.3430 61.0110
X 63.9108 29.3430 61.7110
X 63.9108 29.3430 62.4110
X 63.9108 29.3430 63.1110
X 63.9108 29.3430 63.8110
X 63.9108 29.3430 64.5110
X 64.6108 29.3430 45.6110
X 64.6108 29.3430 46.3110
X 64.6108 29.3430 47.0110
X 64.6108 29.3430 47.7110
X 64.6108 29.3430 48.4110
X 64.6108 29.3430 49.1110
X 64.6108 29.3430 49.8110
X 64.6108 29.3430 50.5110
X 64.6108 29.3430 51.2110
X 64.6108 29.3430 51.9110
X 64.6108 29.3430 52.6110
X 64.6108 29.3430 53.3110
X 64.6108 29.3430 54.0110
X 64.6108 29.3430 54.7110
X 64.6108 29.3430 55.4110
X 64.6108 29.3430 56.1110
X 64.6108 29.3430 56.8110
X 64.6108 29.3430 57.5110
X 64.6108 29.3430 58.2110
X 64.6108 29.3430 58.9110
X 64.6108 29.3430 59.6110
X 64.6108 29.3430 60.3110
X 64.6108 29.3430 61.0110
X 64.6108 29.3430 61.7110
X 64.6108 29.3430 62.4110
X 64.6108 29.3430 63.1110
X 64.6108 29.3430 63.8110
X 65.3108 29.3430 46.3110
X 65.3108 29.3430 47.0110
X 65.3108 29.3430 47.7110
X 65.3108 29.3430 48.4110
X 65.3108 29.3430 49.1110
X 65.3108 29.3430 49.8110
X 65.3108 29.3430 50.5110
X 65.3108 29.3430 51.2110
X 65.3108 29.3430 51.9110
X 65.3108 29.3430 52.6110
X 65.3108 29.3430 53.3110
X 65.3108 29.3430 54.0110
X 65.3108 29.3430 54.7110
X 65.3108 29.3430 55.4110
X 65.3108 29.3430 56.1110
X 65.3108 29.3430 56.8110
X 65.3108 29.3430 57.5110
X 65.3108 29.3430 58.2110
X 65.3108 29.3430 58.9110
X 65.3108 29.3430 59.6110
X 65.3108 29.3430 60.3110
X 65.3108 29.3430 61.0110
X 65.3108 29.3430 61.7110
X 65.3108 29.3430 62.4110
X 65.3108 29.3430 63.1110
X 65.3108 29.3430 63.8110
X 66.0108 29.3430 46.3110
X 66.0108 29.3430 47.0110
X 66.0108 29.3430 47.7110
X 66.0108 29.3430 48.4110
X 66.0108 29.3430 49.1110
X 66.0108 29.3430 49.8110
X 66.0108 29.3430 50.5110
X 66.0108 29.3430 51.2110
X 66.0108 29.3430 51.9110
X 66.0108 29.3430 52.6110
X 66.0108 29.3430 53.3110
X 66.0108 29.3430 54.0110
X 66.0108 29.3430 54.7110
X 66.0108 29.3430 55.4110
X 66.0108 29.3430 56.1110
X 66.0108 29.3430 56.8110
X 66.0108 29.3430 57.5110
X 66.0108 29.3430 58.2110
X 66.0108 29.3430 58.9110
X 66.0108 29.3430 59.6110
X 66.0108 29.3430 60.3110
X 66.0108 29.3430 61.0110
X 66.0108 29.3430 61.7110
X 66.0108 29.3430 62.4110
X 66.0108 29.3430 63.1110
X 66.7108 29.3430 47.0110
X 66.7108 29.3430 47.7110
X 66.7108 29.3430 48.4110
X 66.7108 29.3430 49.1110
X 66.7108 29.3430 49.8110
X 66.7108 29.3430 50.5110
X 66.7108 29.3430 51.2110
X 66.7108 29.3430 51.9110
X 66.7108 29.3430 52.6110
X 66.7108 29.3430 53.3110
X 66.7108 29.3430 54.0110
X 66.7108 29.3430 54.7110
X 66.7108 29.3430 55.4110
X 66.7108 29.3430 56.1110
X 66.7108 29.3430 56.8110
X 66.7108 29.3430 57.5110
X 66.7108 29.3430 58.2110
X 66.7108 29.3430 58.9110
X 66.7108 29.3430 59.6110
X 66.7108 29.3430 60.3110
X 66.7108 29.3430 61.0110
X 66.7108 29.3430 61.7110
X 66.7108 29.3430 62.4110
X 67.4108 29.3430 47.7110
X 67.4108 29.3430 48.4110
X 67.4108 29.3430 49.1110
X 67.4108 29.3430 49.8110
X 67.4108 29.3430 50.5110
X 67.4108 29.3430 51.2110
X 67.4108 29.3430 51.9110
X 67.4108 29.3430 52.6110
X 67.4108 29.3430 53.3110
X 67.4108 29.3430 54.0110
X 67.4108 29.3430 54.7110
X 67.4108 29.3430 55.4110
X 67.4108 29.3430 56.1110
X 67.4108 29.3430 56.8110
X 67.4108 29.3430 57.5110
X 67.4108 29.3430 58.2110
X 67.4108 29.3430 58.9110
X 67.4108 29.3430 59.6110
X 67.4108 29.3430 60.3110
X 67.4108 29.3430 61.0110
X 67.4108 29.3430 61.7110
X 68.1108 29.3430 48.4110
X 68.1108 29.3430 49.1110
X 68.1108 29.3430 49.8110
X 68.1108 29.3430 50.5110
X 68.1108 29.3430 51.2110
X 68.1108 29.3430 51.9110
X 68.1108 29.3430 52.6110
X 68.1108 29.3430 53.3110
X 68.1108 29.3430 54.0110
X 68.1108 29.3430 54.7110
X 68.1108 29.3430 55.4110
X 68.1108 29.3430 56.1110
X 68.1108 29.3430 56.8110
X 68.1108 29.3430 57.5110
X 68.1108 29.3430 58.2110
X 68.1108 29.3430 58.9110
X 68.1108 29.3430 59.6110
X 68.1108 29.3430 60.3110
X 68.1108 29.3430 61.0110
X 68.8108 29.3430 49.1110
X 68.8108 29.3430 49.8110
X 68.8108 29.3430 50.5110
X 68.8108 29.3430 51.2110
X 68.8108 29.3430 51.9110
X 68.8108 29.3430 52.6110
X 68.8108 29.3430 53.3110
X 68.8108 29.3430 54.0110
X 68.8108 29.3430 54.7110
X 68.8108 29.3430 55.4110
X 68.8108 29.3430 56.1110
X 68.8108 29.3430 56.8110
X 68.8108 29.3430 57.5110
X 68.8108 29.3430 58.2110
X 68.8108 29.3430 58.9110
X 68.8108 29.3430 59.6110
X 68.8108 29.3430 60.3110
X 69.5108 29.3430 50.5110
X 69.5108 29.3430 51.2110
X 69.5108 29.3430 51.9110
X 69.5108 29.3430 52.6110
X 69.5108 29.3430 53.3110
X 69.5108 29.3430 54.0110
X 69.5108 29.3430 54.7110
X 69.5108 29.3430 55.4110
X 69.5108 29.3430 56.1110
X 69.5108 29.3430 56.8110
X 69.5108 29.3430 57.5110
X 69.5108 29.3430 58.2110
X 69.5108 29.3430 58.9110
X 70.2108 29.3430 54.0110
X 70.2108 29.3430 54.7110
X 70.2108 29.3430 55.4110
X 70.2108 29.3430 56.1110
X 70.2108 29.3430 56.8110
X 70.2108 29.3430 57.5110
X 47.1108 30.0430 52.6110
X 47.1108 30.0430 53.3110
X 47.1108 30.0430 54.0110
X 47.1108 30.0430 54.7110
X 47.1108 30.0430 55.4110
X 47.1108 30.0430 56.1110
X 47.1108 30.0430 56.8110
X 47.1108 30.0430 57.5110
X 47.8108 30.0430 51.2110
X 47.8108 30.0430 51.9110
X 47.8108 30.0430 52.6110
X 47.8108 30.0430 53.3110
X 47.8108 30.0430 54.0110
X 47.8108 30.0430 54.7110
X 47.8108 30.0430 55.4110
X 47.8108 30.0430 56.1110
X 47.8108 30.0430 56.8110
X 47.8108 30.0430 57.5110
X 47.8108 30.0430 58.2110
X 47.8108 30.0430 58.9110
X 47.8108 30.0430 59.6110
X 48.5108 30.0430 49.8110
X 48.5108 30.0430 50.5110
X 48.5108 30.0430 51.2110
X 48.5108 30.0430 51.9110
X 48.5108 30.0430 52.6110
X 48.5108 30.0430 53.3110
X 48.5108 30.0430 54.0110
X 48.5108 30.0430 54.7110
X 48.5108 30.0430 55.4110
X 48.5108 30.0430 56.1110
X 48.5108 30.0430 56.8110
X 48.5108 30.0430 57.5110
X 48.5108 30.0430 58.2110
X 48.5108 30.0430 58.9110
X 48.5108 30.0430 59.6110
X 48.5108 30.0430 60.3110
X 49.2108 30.0430 49.1110
X 49.2108 30.0430 49.8110
X 49.2108 30.0430 50.5110
X 49.2108 30.0430 51.2110
X 49.2108 30.0430 51.9110
X 49.2108 30.0430 52.6110
X 49.2108 30.0430 53.3110
X 49.2108 30.0430 54.0110
X 49.2108 30.0430 54.7110
X 49.2108 30.0430 55.4110
X 49.2108 30.0430 56.1110
X 49.2108 30.0430 56.8110
X 49.2108 30.0430 57.5110
X 49.2108 30.0430 58.2110
X 49.2108 30.0430 58.9110
X 49.2108 30.0430 59.6110
X 49.2108 30.0430 60.3110
X 49.2108 30.0430 61.0110
X 49.9108 30.0430 48.4110
X 49.9108 30.0430 49.1110
X 49.9108 30.0430 49.8110
X 49.9108 30.0430 50.5110
X 49.9108 30.0430 51.2110
X 49.9108 30.0430 51.9110
X 49.9108 30.0430 52.6110
X 49.9108 30.0430 53.3110
X 49.9108 30.0430 54.0110
X 49.9108 30.0430 54.7110
X 49.9108 30.0430 55.4110
X 49.9108 30.0430 56.1110
X 49.9108 30.0430 56.8110
X 49.9108 30.0430 57.5110
X 49.9108 30.0430 58.2110
X 49.9108 30.0430 58.9110
X 49.9108 30.0430 59.6110
X 49.9108 30.0430 60.3110
X 49.9108 30.0430 61.0110
X 49.9108 30.0430 61.7110
X 50.6108 30.0430 47.7110
X 50.6108 30.0430 48.4110
X 50.6108 30.0430 49.1110
X 50.6108 30.0430 49.8110
X 50.6108 30.0430 50.5110
X 50.6108 30.0430 51.2110
X 50.6108 30.0430 51.9110
X 50.6108 30.0430 52.6110
X 50.6108 30.0430 53.3110
X 50.6108 30.0430 54.0110
X 50.6108 30.0430 54.7110
X 50.6108 30.0430 55.4110
X 50.6108 30.0430 56.1110
X 50.6108 30.0430 56.8110
X 50.6108 30.0430 57.5110
X 50.6108 30.0430 58.2110
X 50.6108 30.0430 58.9110
X 50.6108 30.0430 59.6110
X 50.6108 30.0430 60.3110
X 50.6108 30.0430 61.0110
X 50.6108 30.0430 61.7110
X 50.6108 30.0430 62.4110
X 51.3108 30.0430 47.7110
X 51.3108 30.0430 48.4110
X 51.3108 30.0430 49.1110
X 51.3108 30.0430 49.8110
X 51.3108 30.0430 50.5110
X 51.3108 30.0430 51.2110
X 51.3108 30.0430 51.9110
X 51.3108 30.0430 52.6110
X 51.3108 30.0430 53.3110
X 51.3108 30.0430 54.0110
X 51.3108 30.0430 54.7110
X 51.3108 30.0430 55.4110
X 51.3108 30.0430 56.1110
X 51.3108 30.0430 56.8110
X 51.3108 30.0430 57.5110
X 51.3108 30.0430 58.2110
X 51.3108 30.0430 58.9110
X 51.3108 30.0430 59.6110
X 51.3108 30.0430 60.3110
X 51.3108 30.0430 61.0110
X 51.3108 30.0430 61.7110
X 51.3108 30.0430 62.4110
X 51.3108 30.0430 63.1110
X 52.0108 30.0430 47.0110
X 52.0108 30.0430 47.7110
X 52.0108 30.0430 48.4110
X 52.0108 30.0430 49.1110
X 52.0108 30.0430 49.8110
X 52.0108 30.0430 50.5110
X 52.0108 30.0430 51.2110
X 52.0108 30.0430 51.9110
X 52.0108 30.0430 52.6110
X 52.0108 30.0430 53.3110
X 52.0108 30.0430 54.0110
X 52.0108 30.0430 54.7110
X 52.0108 30.0430 55.4110
X 52.0108 30.0430 56.1110
X 52.0108 30.0430 56.8110
X 52.0108 30.0430 57.5110
X 52.0108 30.0430 58.2110
X 52.0108 30.0430 58.9110
X 52.0108 30.0430 59.6110
X 52.0108 30.0430 60.3110
X 52.0108 30.0430 61.0110
X 52.0108 30.0430 61.7110
X 52.0108 30.0430 62.4110
X 52.0108 30.0430 63.1110
X 52.0108 30.0430 63.8110
X 52.7108 30.0430 47.0110
X 52.7108 30.0430 47.7110
X 52.7108 30.0430 48.4110
X 52.7108 30.0430 49.1110
X 52.7108 30.0430 49.8110
X 52.7108 30.0430 50.5110
X 52.7108 30.0430 51.2110
X 52.7108 30.0430 51.9110
X 52.7108 30.0430 52.6110
X 52.7108 30.0430 53.3110
X 52.7108 30.0430 54.0110
X 52.7108 30.0430 54.7110
X 52.7108 30.0430 55.4110
X 52.7108 30.0430 56.1110
X 52.7108 30.0430 56.8110
X 52.7108 30.0430 57.5110
X 52.7108 30.0430 58.2110
X 52.7108 30.0430 58.9110
X 52.7108 30.0430 59.6110
X 52.7108 30.0430 60.3110
X 52.7108 30.0430 61.0110
X 52.7108 30.0430 61.7110
X 52.7108 30.0430 62.4110
X 52.7108 30.0430 63.1110
X 52.7108 30.0430 63.8110
X 53.4108 30.0430 46.3110
X 53.4108 30.0430 47.0110
X 53.4108 30.0430 47.7110
X 53.4108 30.0430 48.4110
X 53.4108 30.0430 49.1110
X 53.4108 30.0430 49.8110
X 53.4108 30.0430 50.5110
X 53.4108 30.0430 51.2110
X 53.4108 30.0430 51.9110
X 53.4108 30.0430 52.6110
X 53.4108 30.0430 53.3110
X 53.4108 30.0430 55.4110
X 53.4108 30.0430 56.1110
X 53.4108 30.0430 56.8110
X 53.4108 30.0430 57.5110
X 53.4108 30.0430 58.2110
X 53.4108 30.0430 58.9110
X 53.4108 30.0430 59.6110
X 53.4108 30.0430 60.3110
X 53.4108 30.0430 61.0110
X 53.4108 30.0430 61.7110
X 53.4108 30.0430 62.4110
X 53.4108 30.0430 63.1110
X 53.4108 30.0430 63.8110
X 53.4108 30.0430 64.5110
X 54.1108 30.0430 46.3110
X 54.1108 30.0430 47.0110
X 54.1108 30.0430 47.7110
X 54.1108 30.0430 48.4110
X 54.1108 30.0430 49.1110
X 54.1108 30.0430 49.8110
X 54.1108 30.0430 50.5110
X 54.1108 30.0430 51.2110
X 54.1108 30.0430 51.9110
X 54.1108 30.0430 56.8110
X 54.1108 30.0430 57.5110
X 54.1108 30.0430 58.2110
X 54.1108 30.0430 58.9110
X 54.1108 30.0430 59.6110
X 54.1108 30.0430 60.3110
X 54.1108 30.0430 61.0110
X 54.1108 30.0430 61.7110
X 54.1108 30.0430 62.4110
X 54.1108 30.0430 63.1110
X 54.1108 30.0430 63.8110
X 54.1108 30.0430 64.5110
X 54.8108 30.0430 46.3110
X 54.8108 30.0430 47.0110
X 54.8108 30.0430 47.7110
X 54.8108 30.0430 48.4110
X 54.8108 30.0430 49.1110
X 54.8108 30.0430 49.8110
X 54.8108 30.0430 50.5110
X 54.8108 30.0430 51.2110
X 54.8108 30.0430 51.9110
X 54.8108 30.0430 57.5110
X 54.8108 30.0430 58.2110
X 54.8108 30.0430 58.9110
X 54.8108 30.0430 59.6110
X 54.8108 30.0430 60.3110
X 54.8108 30.0430 61.0110
X 54.8108 30.0430 61.7110
X 54.8108 30.0430 62.4110
X 54.8108 30.0430 63.1110
X 54.8108 30.0430 63.8110
X 54.8108 30.0430 64.5110
X 55.5108 30.0430 46.3110
X 55.5108 30.0430 47.0110
X 55.5108 30.0430 47.7110
X 55.5108 30.0430 48.4110
X 55.5108 30.0430 49.1110
X 55.5108 30.0430 49.8110
X 55.5108 30.0430 50.5110
X 55.5108 30.0430 51.2110
X 55.5108 30.0430 58.2110
X 55.5108 30.0430 58.9110
X 55.5108 30.0430 59.6110
X 55.5108 30.0430 60.3110
X 55.5108 30.0430 61.0110
X 55.5108 30.0430 61.7110
X 55.5108 30.0430 62.4110
X 55.5108 30.0430 63.1110
X 55.5108 30.0430 63.8110
X 55.5108 30.0430 64.5110
X 55.5108 30.0430 65.2110
X 56.2108 30.0430 46.3110
X 56.2108 30.0430 47.0110
X 56.2108 30.0430 47.7110
X 56.2108 30.0430 48.4110
X 56.2108 30.0430 49.1110
X 56.2108 30.0430 49.8110
X 56.2108 30.0430 50.5110
X 56.2108 30.0430 51.2110
X 56.2108 30.0430 58.9110
X 56.2108 30.0430 59.6110
X 56.2108 30.0430 60.3110
X 56.2108 30.0430 61.0110
X 56.2108 30.0430 61.7110
X 56.2108 30.0430 62.4110
X 56.2108 30.0430 63.1110
X 56.2108 30.0430 63.8110
X 56.2108 30.0430 64.5110
X 56.2108 30.0430 65.2110
X 56.9108 30.0430 45.6110
X 56.9108 30.0430 46.3110
X 56.9108 30.0430 47.0110
X 56.9108 30.0430 47.7110
X 56.9108 30.0430 48.4110
X 56.9108 30.0430 49.1110
X 56.9108 30.0430 49.8110
X 56.9108 30.0430 50.5110
X 56.9108 30.0430 51.2110
X 56.9108 30.0430 51.9110
X 56.9108 30.0430 59.6110
X 56.9108 30.0430 60.3110
X 56.9108 30.0430 61.0110
X 56.9108 30.0430 61.7110
X 56.9108 30.0430 62.4110
X 56.9108 30.0430 63.1110
X 56.9108 30.0430 63.8110
X 56.9108 30.0430 64.5110
X 56.9108 30.0430 65.2110
X 57.6108 30.0430 45.6110
X 57.6108 30.0430 46.3110
X 57.6108 30.0430 47.0110
X 57.6108 30.0430 47.7110
X 57.6108 30.0430 48.4110
X 57.6108 30.0430 49.1110
X 57.6108 30.0430 49.8110
X 57.6108 30.0430 50.5110
X 57.6108 30.0430 51.2110
X 57.6108 30.0430 51.9110
X 57.6108 30.0430 59.6110
X 57.6108 30.0430 60.3110
X 57.6108 30.0430 61.0110
X 57.6108 30.0430 61.7110
X 57.6108 30.0430 62.4110
X 57.6108 30.0430 63.1110
X 57.6108 30.0430 63.8110
X 57.6108 30.0430 64.5110
X 57.6108 30.0430 65.2110
X 58.3108 30.0430 45.6110
X 58.3108 30.0430 46.3110
X 58.3108 30.0430 47.0110
X 58.3108 30.0430 47.7110
X 58.3108 30.0430 48.4110
X 58.3108 30.0430 49.1110
X 58.3108 30.0430 49.8110
X 58.3108 30.0430 50.5110
X 58.3108 30.0430 51.2110
X 58.3108 30.0430 51.9110
X 58.3108 30.0430 59.6110
X 58.3108 30.0430 60.3110
X 58.3108 30.0430 61.0110
X 58.3108 30.0430 61.7110
X 58.3108 30.0430 62.4110
X 58.3108 30.0430 63.1110
X 58.3108 30.0430 63.8110
X 58.3108 30.0430 64.5110
X 58.3108 30.0430 65.2110
X 59.0108 30.0430 45.6110
X 59.0108 30.0430 46.3110
X 59.0108 30.0430 47.0110
X 59.0108 30.0430 47.7110
X 59.0108 30.0430 48.4110
X 59.0108 30.0430 49.1110
X 59.0108 30.0430 49.8110
X 59.0108 30.0430 50.5110
X 59.0108 30.0430 51.2110
X 59.0108 30.0430 59.6110
X 59.0108 30.0430 60.3110
X 59.0108 30.0430 61.0110
X 59.0108 30.0430 61.7110
X 59.0108 30.0430 62.4110
X 59.0108 30.0430 63.1110
X 59.0108 30.0430 63.8110
X 59.0108 30.0430 64.5110
X 59.0108 30.0430 65.2110
X 59.7108 30.0430 44.9110
X 59.7108 30.0430 45.6110
X 59.7108 30.0430 46.3110
X 59.7108 30.0430 47.0110
X 59.7108 30.0430 47.7110
X 59.7108 30.0430 48.4110
X 59.7108 30.0430 49.1110
X 59.7108 30.0430 49.8110
X 59.7108 30.0430 50.5110
X 59.7108 30.0430 59.6110
X 59.7108 30.0430 60.3110
X 59.7108 30.0430 61.0110
X 59.7108 30.0430 61.7110
X 59.7108 30.0430 62.4110
X 59.7108 30.0430 63.1110
X 59.7108 30.0430 63.8110
X 59.7108 30.0430 64.5110
X 59.7108 30.0430 65.2110
X 60.4108 30.0430 44.9110
X 60.4108 30.0430 45.6110
X 60.4108 30.0430 46.3110
X 60.4108 30.0430 47.0110
X 60.4108 30.0430 47.7110
X 60.4108 30.0430 48.4110
X 60.4108 30.0430 49.1110
X 60.4108 30.0430 49.8110
X 60.4108 30.0430 50.5110
X 60.4108 30.0430 58.9110
X 60.4108 30.0430 59.6110
X 60.4108 30.0430 60.3110
X 60.4108 30.0430 61.0110
X 60.4108 30.0430 61.7110
X 60.4108 30.0430 62.4110
X 60.4108 30.0430 63.1110
X 60.4108 30.0430 63.8110
X 60.4108 30.0430 64.5110
X 60.4108 30.0430 65.2110
X 61.1108 30.0430 44.9110
X 61.1108 30.0430 45.6110
X 61.1108 30.0430 46.3110
X 61.1108 30.0430 47.0110
X 61.1108 30.0430 47.7110
X 61.1108 30.0430 48.4110
X 61.1108 30.0430 49.1110
X 61.1108 30.0430 49.8110
X 61.1108 30.0430 58.9110
X 61.1108 30.0430 59.6110
X 61.1108 30.0430 60.3110
X 61.1108 30.0430 61.0110
X 61.1108 30.0430 61.7110
X 61.1108 30.0430 62.4110
X 61.1108 30.0430 63.1110
X 61.1108 30.0430 63.8110
X 61.1108 30.0430 64.5110
X 61.1108 30.0430 65.2110
X 61.8108 30.0430 44.9110
X 61.8108 30.0430 45.6110
X 61.8108 30.0430 46.3110
X 61.8108 30.0430 47.0110
X 61.8108 30.0430 47.7110
X 61.8108 30.0430 48.4110
X 61.8108 30.0430 49.1110
X 61.8108 30.0430 49.8110
X 61.8108 30.0430 58.9110
X 61.8108 30.0430 59.6110
X 61.8108 30.0430 60.3110
X 61.8108 30.0430 61.0110
X 61.8108 30.0430 61.7110
X 61.8108 30.0430 62.4110
X 61.8108 30.0430 63.1110
X 61.8108 30.0430 63.8110
X 61.8108 30.0430 64.5110
X 61.8108 30.0430 65.2110
X 62.5108 30.0430 44.9110
X 62.5108 30.0430 45.6110
X 62.5108 30.0430 46.3110
X 62.5108 30.0430 47.0110
X 62.5108 30.0430 47.7110
X 62.5108 30.0430 48.4110
X 62.5108 30.0430 49.1110
X 62.5108 30.0430 49.8110
X 62.5108 30.0430 50.5110
X 62.5108 30.0430 58.9110
X 62.5108 30.0430 59.6110
X 62.5108 30.0430 60.3110
X 62.5108 30.0430 61.0110
X 62.5108 30.0430 61.7110
X 62.5108 30.0430 62.4110
X 62.5108 30.0430 63.1110
X 62.5108 30.0430 63.8110
X 62.5108 30.0430 64.5110
X 62.5108 30.0430 65.2110
X 63.2108 30.0430 44.9110
X 63.2108 30.0430 45.6110
X 63.2108 30.0430 46.3110
X 63.2108 30.0430 47.0110
X 63.2108 30.0430 47.7110
X 63.2108 30.0430 48.4110
X 63.2108 30.0430 49.1110
X 63.2108 30.0430 49.8110
X 63.2108 30.0430 50.5110
X 63.2108 30.0430 58.9110
X 63.2108 30.0430 59.6110
X 63.2108 30.0430 60.3110
X 63.2108 30.0430 61.0110
X 63.2108 30.0430 61.7110
X 63.2108 30.0430 62.4110
X 63.2108 30.0430 63.1110
X 63.2108 30.0430 63.8110
X 63.2108 30.0430 64.5110
X 63.2108 30.0430 65.2110
X 63.9108 30.0430 45.6110
X 63.9108 30.0430 46.3110
X 63.9108 30.0430 47.0110
X 63.9108 30.0430 47.7110
X 63.9108 30.0430 48.4110
X 63.9108 30.0430 49.1110
X 63.9108 30.0430 49.8110
X 63.9108 30.0430 50.5110
X 63.9108 30.0430 51.2110
X 63.9108 30.0430 58.2110
X 63.9108 30.0430 58.9110
X 63.9108 30.0430 59.6110
X 63.9108 30.0430 60.3110
X 63.9108 30.0430 61.0110
X 63.9108 30.0430 61.7110
X 63.9108 30.0430 62.4110
X 63.9108 30.0430 63.1110
X 63.9108 30.0430 63.8110
X 63.9108 30.0430 64.5110
X 64.6108 30.0430 45.6110
X 64.6108 30.0430 46.3110
X 64.6108 30.0430 47.0110
X 64.6108 30.0430 47.7110
X 64.6108 30.0430 48.4110
X 64.6108 30.0430 49.1110
X 64.6108 30.0430 49.8110
X 64.6108 30.0430 50.5110
X 64.6108 30.0430 51.2110
X 64.6108 30.0430 51.9110
X 64.6108 30.0430 52.6110
X 64.6108 30.0430 53.3110
X 64.6108 30.0430 54.0110
X 64.6108 30.0430 57.5110
X 64.6108 30.0430 58.2110
X 64.6108 30.0430 58.9110
X 64.6108 30.0430 59.6110
X 64.6108 30.0430 60.3110
X 64.6108 30.0430 61.0110
X 64.6108 30.0430 61.7110
X 64.6108 30.0430 62.4110
X 64.6108 30.0430 63.1110
X 64.6108 30.0430 63.8110
X 64.6108 30.0430 64.5110
X 65.3108 30.0430 45.6110
X 65.3108 30.0430 46.3110
X 65.3108 30.0430 47.0110
X 65.3108 30.0430 47.7110
X 65.3108 30.0430 48.4110
X 65.3108 30.0430 49.1110
X 65.3108 30.0430 49.8110
X 65.3108 30.0430 50.5110
X 65.3108 30.0430 51.2110
X 65.3108 30.0430 51.9110
X 65.3108 30.0430 52.6110
X 65.3108 30.0430 53.3110
X 65.3108 30.0430 54.0110
X 65.3108 30.0430 54.7110
X 65.3108 30.0430 55.4110
X 65.3108 30.0430 56.1110
X 65.3108 30.0430 56.8110
X 65.3108 30.0430 57.5110
X 65.3108 30.0430 58.2110
X 65.3108 30.0430 58.9110
X 65.3108 30.0430 59.6110
X 65.3108 30.0430 60.3110
X 65.3108 30.0430 61.0110
X 65.3108 30.0430 61.7110
X 65.3108 30.0430 62.4110
X 65.3108 30.0430 63.1110
X 65.3108 30.0430 63.8110
X 66.0108 30.0430 46.3110
X 66.0108 30.0430 47.0110
X 66.0108 30.0430 47.7110
X 66.0108 30.0430 48.4110
X 66.0108 30.0430 49.1110
X 66.0108 30.0430 49.8110
X 66.0108 30.0430 50.5110
X 66.0108 30.0430 51.2110
X 66.0108 30.0430 51.9110
X 66.0108 30.0430 52.6110
X 66.0108 30.0430 53.3110
X 66.0108 30.0430 54.0110
X 66.0108 30.0430 54.7110
X 66.0108 30.0430 55.4110
X 66.0108 30.0430 56.1110
X 66.0108 30.0430 56.8110
X 66.0108 30.0430 57.5110
X 66.0108 30.0430 58.2110
X 66.0108 30.0430 58.9110
X 66.0108 30.0430 59.6110
X 66.0108 30.0430 60.3110
X 66.0108 30.0430 61.0110
X 66.0108 30.0430 61.7110
X 66.0108 30.0430 62.4110
X 66.0108 30.0430 63.1110
X 66.7108 30.0430 46.3110
X 66.7108 30.0430 47.0110
X 66.7108 30.0430 47.7110
X 66.7108 30.0430 48.4110
X 66.7108 30.0430 49.1110
X 66.7108 30.0430 49.8110
X 66.7108 30.0430 50.5110
X 66.7108 30.0430 51.2110
X 66.7108 30.0430 51.9110
X 66.7108 30.0430 52.6110
X 66.7108 30.0430 53.3110
X 66.7108 30.0430 54.0110
X 66.7108 30.0430 54.7110
X 66.7108 30.0430 55.4110
X 66.7108 30.0430 56.1110
X 66.7108 30.0430 56.8110
X 66.7108 30.0430 57.5110
X 66.7108 30.0430 58.2110
X 66.7108 30.0430 58.9110
X 66.7108 30.0430 59.6110
X 66.7108 30.0430 60.3110
X 66.7108 30.0430 61.0110
X 66.7108 30.0430 61.7110
X 66.7108 30.0430 62.4110
X 67.4108 30.0430 47.0110
X 67.4108 30.0430 47.7110
X 67.4108 30.0430 48.4110
X 67.4108 30.0430 49.1110
X 67.4108 30.0430 49.8110
X 67.4108 30.0430 50.5110
X 67.4108 30.0430 51.2110
X 67.4108 30.0430 51.9110
X 67.4108 30.0430 52.6110
X 67.4108 30.0430 53.3110
X 67.4108 30.0430 54.0110
X 67.4108 30.0430 54.7110
X 67.4108 30.0430 55.4110
X 67.4108 30.0430 56.1110
X 67.4108 30.0430 56.8110
X 67.4108 30.0430 57.5110
X 67.4108 30.0430 58.2110
X 67.4108 30.0430 58.9110
X 67.4108 30.0430 59.6110
X 67.4108 30.0430 60.3110
X 67.4108 30.0430 61.0110
X 67.4108 30.0430 61.7110
X 68.1108 30.0430 47.7110
X 68.1108 30.0430 48.4110
X 68.1108 30.0430 49.1110
X 68.1108 30.0430 49.8110
X 68.1108 30.0430 50.5110
X 68.1108 30.0430 51.2110
X 68.1108 30.0430 51.9110
X 68.1108 30.0430 52.6110
X 68.1108 30.0430 53.3110
X 68.1108 30.0430 54.0110
X 68.1108 30.0430 54.7110
X 68.1108 30.0430 55.4110
X 68.1108 30.0430 56.1110
X 68.1108 30.0430 56.8110
X 68.1108 30.0430 57.5110
X 68.1108 30.0430 58.2110
X 68.1108 30.0430 58.9110
X 68.1108 30.0430 59.6110
X 68.1108 30.0430 60.3110
X 68.1108 30.0430 61.0110
X 68.1108 30.0430 61.7110
X 68.8108 30.0430 49.1110
X 68.8108 30.0430 49.8110
X 68.8108 30.0430 50.5110
X 68.8108 30.0430 51.2110
X 68.8108 30.0430 51.9110
X 68.8108 30.0430 52.6110
X 68.8108 30.0430 53.3110
X 68.8108 30.0430 54.0110
X 68.8108 30.0430 54.7110
X 68.8108 30.0430 55.4110
X 68.8108 30.0430 56.1110
X 68.8108 30.0430 56.8110
X 68.8108 30.0430 57.5110
X 68.8108 30.0430 58.2110
X 68.8108 30.0430 58.9110
X 68.8108 30.0430 59.6110
X 68.8108 30.0430 60.3110
X 69.5108 30.0430 49.8110
X 69.5108 30.0430 50.5110
X 69.5108 30.0430 51.2110
X 69.5108 30.0430 51.9110
X 69.5108 30.0430 52.6110
X 69.5108 30.0430 53.3110
X 69.5108 30.0430 54.0110
X 69.5108 30.0430 54.7110
X 69.5108 30.0430 55.4110
X 69.5108 30.0430 56.1110
X 69.5108 30.0430 56.8110
X 69.5108 30.0430 57.5110
X 69.5108 30.0430 58.2110
X 69.5108 30.0430 58.9110
X 69.5108 30.0430 59.6110
X 70.2108 30.0430 52.6110
X 70.2108 30.0430 53.3110
X 70.2108 30.0430 54.0110
X 70.2108 30.0430 54.7110
X 70.2108 30.0430 55.4110
X 70.2108 30.0430 56.1110
X 70.2108 30.0430 56.8110
X 70.2108 30.0430 57.5110
X 70.2108 30.0430 58.2110
X 47.1108 30.7430 51.9110
X 47.1108 30.7430 52.6110
X 47.1108 30.7430 53.3110
X 47.1108 30.7430 54.0110
X 47.1108 30.7430 54.7110
X 47.1108 30.7430 55.4110
X 47.1108 30.7430 56.1110
X 47.1108 30.7430 56.8110
X 47.1108 30.7430 57.5110
X 47.1108 30.7430 58.2110
X 47.8108 30.7430 50.5110
X 47.8108 30.7430 51.2110
X 47.8108 30.7430 51.9110
X 47.8108 30.7430 52.6110
X 47.8108 30.7430 53.3110
X 47.8108 30.7430 54.0110
X 47.8108 30.7430 54.7110
X 47.8108 30.7430 55.4110
X 47.8108 30.7430 56.1110
X 47.8108 30.7430 56.8110
X 47.8108 30.7430 57.5110
X 47.8108 30.7430 58.2110
X 47.8108 30.7430 58.9110
X 47.8108 30.7430 59.6110
X 48.5108 30.7430 49.8110
X 48.5108 30.7430 50.5110
X 48.5108 30.7430 51.2110
X 48.5108 30.7430 51.9110
X 48.5108 30.7430 52.6110
X 48.5108 30.7430 53.3110
X 48.5108 30.7430 54.0110
X 48.5108 30.7430 54.7110
X 48.5108 30.7430 55.4110
X 48.5108 30.7430 56.1110
X 48.5108 30.7430 56.8110
X 48.5108 30.7430 57.5110
X 48.5108 30.7430 58.2110
X 48.5108 30.7430 58.9110
X 48.5108 30.7430 59.6110
X 48.5108 30.7430 60.3110
X 49.2108 30.7430 49.1110
X 49.2108 30.7430 49.8110
X 49.2108 30.7430 50.5110
X 49.2108 30.7430 51.2110
X 49.2108 30.7430 51.9110
X 49.2108 30.7430 52.6110
X 49.2108 30.7430 53.3110
X 49.2108 30.7430 54.0110
X 49.2108 30.7430 54.7110
X 49.2108 30.7430 55.4110
X 49.2108 30.7430 56.1110
X 49.2108 30.7430 56.8110
X 49.2108 30.7430 57.5110
X 49.2108 30.7430 58.2110
X 49.2108 30.7430 58.9110
X 49.2108 30.7430 59.6110
X 49.2108 30.7430 60.3110
X 49.2108 30.7430 61.0110
X 49.9108 30.7430 48.4110
X 49.9108 30.7430 49.1110
X 49.9108 30.7430 49.8110
X 49.9108 30.7430 50.5110
X 49.9108 30.7430 51.2110
X 49.9108 30.7430 51.9110
X 49.9108 30.7430 52.6110
X 49.9108 30.7430 53.3110
X 49.9108 30.7430 54.0110
X 49.9108 30.7430 54.7110
X 49.9108 30.7430 55.4110
X 49.9108 30.7430 56.1110
X 49.9108 30.7430 56.8110
X 49.9108 30.7430 57.5110
X 49.9108 30.7430 58.2110
X 49.9108 30.7430 58.9110
X 49.9108 30.7430 59.6110
X 49.9108 30.7430 60.3110
X 49.9108 30.7430 61.0110
X 49.9108 30.7430 61.7110
X 50.6108 30.7430 47.7110
X 50.6108 30.7430 48.4110
X 50.6108 30.7430 49.1110
X 50.6108 30.7430 49.8110
X 50.6108 30.7430 50.5110
X 50.6108 30.7430 51.2110
X 50.6108 30.7430 51.9110
X 50.6108 30.7430 52.6110
X 50.6108 30.7430 53.3110
X 50.6108 30.7430 54.0110
X 50.6108 30.7430 54.7110
X 50.6108 30.7430 55.4110
X 50.6108 30.7430 56.1110
X 50.6108 30.7430 56.8110
X 50.6108 30.7430 57.5110
X 50.6108 30.7430 58.2110
X 50.6108 30.7430 58.9110
X 50.6108 30.7430 59.6110
X 50.6108 30.7430 60.3110
X 50.6108 30.7430 61.0110
X 50.6108 30.7430 61.7110
X 50.6108 30.7430 62.4110
X 51.3108 30.7430 47.0110
X 51.3108 30.7430 47.7110
X 51.3108 30.7430 48.4110
X 51.3108 30.7430 49.1110
X 51.3108 30.7430 49.8110
X 51.3108 30.7430 50.5110
X 51.3108 30.7430 51.2110
X 51.3108 30.7430 51.9110
X 51.3108 30.7430 52.6110
X 51.3108 30.7430 53.3110
X 51.3108 30.7430 54.0110
X 51.3108 30.7430 54.7110
X 51.3108 30.7430 55.4110
X 51.3108 30.7430 56.1110
X 51.3108 30.7430 56.8110
X 51.3108 30.7430 57.5110
X 51.3108 30.7430 58.2110
X 51.3108 30.7430 58.9110
X 51.3108 30.7430 59.6110
X 51.3108 30.7430 60.3110
X 51.3108 30.7430 61.0110
X 51.3108 30.7430 61.7110
X 51.3108 30.7430 62.4110
X 51.3108 30.7430 63.1110
X 52.0108 30.7430 47.0110
X 52.0108 30.7430 47.7110
X 52.0108 30.7430 48.4110
X 52.0108 30.7430 49.1110
X 52.0108 30.7430 49.8110
X 52.0108 30.7430 50.5110
X 52.0108 30.7430 51.2110
X 52.0108 30.7430 51.9110
X 52.0108 30.7430 52.6110
X 52.0108 30.7430 53.3110
X 52.0108 30.7430 54.0110
X 52.0108 30.7430 54.7110
X 52.0108 30.7430 55.4110
X 52.0108 30.7430 56.1110
X 52.0108 30.7430 56.8110
X 52.0108 30.7430 57.5110
X 52.0108 30.7430 58.2110
X 52.0108 30.7430 58.9110
X 52.0108 30.7430 59.6110
X 52.0108 30.7430 60.3110
X 52.0108 30.7430 61.0110
X 52.0108 30.7430 61.7110
X 52.0108 30.7430 62.4110
X 52.0108 30.7430 63.1110
X 52.0108 30.7430 63.8110
X 52.7108 30.7430 46.3110
X 52.7108 30.7430 47.0110
X 52.7108 30.7430 47.7110
X 52.7108 30.7430 48.4110
X 52.7108 30.7430 49.1110
X 52.7108 30.7430 49.8110
X 52.7108 30.7430 50.5110
X 52.7108 30.7430 51.2110
X 52.7108 30.7430 51.9110
X 52.7108 30.7430 52.6110
X 52.7108 30.7430 53.3110
X 52.7108 30.7430 54.0110
X 52.7108 30.7430 54.7110
X 52.7108 30.7430 55.4110
X 52.7108 30.7430 56.1110
X 52.7108 30.7430 56.8110
X 52.7108 30.7430 57.5110
X 52.7108 30.7430 58.2110
X 52.7108 30.7430 58.9110
X 52.7108 30.7430 59.6110
X 52.7108 30.7430 60.3110
X 52.7108 30.7430 61.0110
X 52.7108 30.7430 61.7110
X 52.7108 30.7430 62.4110
X 52.7108 30.7430 63.1110
X 52.7108 30.7430 63.8110
X 53.4108 30.7430 46.3110
X 53.4108 30.7430 47.0110
X 53.4108 30.7430 47.7110
X 53.4108 30.7430 48.4110
X 53.4108 30.7430 49.1110
X 53.4108 30.7430 49.8110
X 53.4108 30.7430 50.5110
X 53.4108 30.7430 51.2110
X 53.4108 30.7430 51.9110
X 53.4108 30.7430 56.8110
X 53.4108 30.7430 57.5110
X 53.4108 30.7430 58.2110
X 53.4108 30.7430 58.9110
X 53.4108 30.7430 59.6110
X 53.4108 30.7430 60.3110
X 53.4108 30.7430 61.0110
X 53.4108 30.7430 61.7110
X 53.4108 30.7430 62.4110
X 53.4108 30.7430 63.1110
X 53.4108 30.7430 63.8110
X 53.4108 30.7430 64.5110
X 54.1108 30.7430 46.3110
X 54.1108 30.7430 47.0110
X 54.1108 30.7430 47.7110
X 54.1108 30.7430 48.4110
X 54.1108 30.7430 49.1110
X 54.1108 30.7430 49.8110
X 54.1108 30.7430 50.5110
X 54.1108 30.7430 51.2110
X 54.1108 30.7430 57.5110
X 54.1108 30.7430 58.2110
X 54.1108 30.7430 58.9110
X 54.1108 30.7430 59.6110
X 54.1108 30.7430 60.3110
X 54.1108 30.7430 61.0110
X 54.1108 30.7430 61.7110
X 54.1108 30.7430 62.4110
X 54.1108 30.7430 63.1110
X 54.1108 30.7430 63.8110
X 54.1108 30.7430 64.5110
X 54.8108 30.7430 46.3110
X 54.8108 30.7430 47.0110
X 54.8108 30.7430 47.7110
X 54.8108 30.7430 48.4110
X 54.8108 30.7430 49.1110
X 54.8108 30.7430 49.8110
X 54.8108 30.7430 50.5110
X 54.8108 30.7430 51.2110
X 54.8108 30.7430 58.2110
X 54.8108 30.7430 58.9110
X 54.8108 30.7430 59.6110
X 54.8108 30.7430 60.3110
X 54.8108 30.7430 61.0110
X 54.8108 30.7430 61.7110
X 54.8108 30.7430 62.4110
X 54.8108 30.7430 63.1110
X 54.8108 30.7430 63.8110
X 54.8108 30.7430 64.5110
X 54.8108 30.7430 65.2110
X 55.5108 30.7430 45.6110
X 55.5108 30.7430 46.3110
X 55.5108 30.7430 47.0110
X 55.5108 30.7430 47.7110
X 55.5108 30.7430 48.4110
X 55.5108 30.7430 49.1110
X 55.5108 30.7430 49.8110
X 55.5108 30.7430 50.5110
X 55.5108 30.7430 51.2110
X 55.5108 30.7430 58.9110
X 55.5108 30.7430 59.6110
X 55.5108 30.7430 60.3110
X 55.5108 30.7430 61.0110
X 55.5108 30.7430 61.7110
X 55.5108 30.7430 62.4110
X 55.5108 30.7430 63.1110
X 55.5108 30.7430 63.8110
X 55.5108 30.7430 64.5110
X 55.5108 30.7430 65.2110
X 56.2108 30.7430 45.6110
X 56.2108 30.7430 46.3110
X 56.2108 30.7430 47.0110
X 56.2108 30.7430 47.7110
X 56.2108 30.7430 48.4110
X 56.2108 30.7430 49.1110
X 56.2108 30.7430 49.8110
X 56.2108 30.7430 50.5110
X 56.2108 30.7430 51.2110
X 56.2108 30.7430 59.6110
X 56.2108 30.7430 60.3110
X 56.2108 30.7430 61.0110
X 56.2108 30.7430 61.7110
X 56.2108 30.7430 62.4110
X 56.2108 30.7430 63.1110
X 56.2108 30.7430 63.8110
X 56.2108 30.7430 64.5110
X 56.2108 30.7430 65.2110
X 56.9108 30.7430 45.6110
X 56.9108 30.7430 46.3110
X 56.9108 30.7430 47.0110
X 56.9108 30.7430 47.7110
X 56.9108 30.7430 48.4110
X 56.9108 30.7430 49.1110
X 56.9108 30.7430 49.8110
X 56.9108 30.7430 50.5110
X 56.9108 30.7430 51.2110
X 56.9108 30.7430 59.6110
X 56.9108 30.7430 60.3110
X 56.9108 30.7430 61.0110
X 56.9108 30.7430 61.7110
X 56.9108 30.7430 62.4110
X 56.9108 30.7430 63.1110
X 56.9108 30.7430 63.8110
X 56.9108 30.7430 64.5110
X 56.9108 30.7430 65.2110
X 57.6108 30.7430 45.6110
X 57.6108 30.7430 46.3110
X 57.6108 30.7430 47.0110
X 57.6108 30.7430 47.7110
X 57.6108 30.7430 48.4110
X 57.6108 30.7430 49.1110
X 57.6108 30.7430 49.8110
X 57.6108 30.7430 50.5110
X 57.6108 30.7430 51.2110
X 57.6108 30.7430 60.3110
X 57.6108 30.7430 61.0110
X 57.6108 30.7430 61.7110
X 57.6108 30.7430 62.4110
X 57.6108 30.7430 63.1110
X 57.6108 30.7430 63.8110
X 57.6108 30.7430 64.5110
X 57.6108 30.7430 65.2110
X 57.6108 30.7430 65.9110
X 58.3108 30.7430 44.9110
X 58.3108 30.7430 45.6110
X 58.3108 30.7430 46.3110
X 58.3108 30.7430 47.0110
X 58.3108 30.7430 47.7110
X 58.3108 30.7430 48.4110
X 58.3108 30.7430 49.1110
X 58.3108 30.7430 49.8110
X 58.3108 30.7430 50.5110
X 58.3108 30.7430 51.2110
X 58.3108 30.7430 60.3110
X 58.3108 30.7430 61.0110
X 58.3108 30.7430 61.7110
X 58.3108 30.7430 62.4110
X 58.3108 30.7430 63.1110
X 58.3108 30.7430 63.8110
X 58.3108 30.7430 64.5110
X 58.3108 30.7430 65.2110
X 58.3108 30.7430 65.9110
X 59.0108 30.7430 44.9110
X 59.0108 30.7430 45.6110
X 59.0108 30.7430 46.3110
X 59.0108 30.7430 47.0110
X 59.0108 30.7430 47.7110
X 59.0108 30.7430 48.4110
X 59.0108 30.7430 49.1110
X 59.0108 30.7430 49.8110
X 59.0108 30.7430 50.5110
X 59.0108 30.7430 51.2110
X 59.0108 30.7430 59.6110
X 59.0108 30.7430 60.3110
X 59.0108 30.7430 61.0110
X 59.0108 30.7430 61.7110
X 59.0108 30.7430 62.4110
X 59.0108 30.7430 63.1110
X 59.0108 30.7430 63.8110
X 59.0108 30.7430 64.5110
X 59.0108 30.7430 65.2110
X 59.7108 30.7430 44.9110
X 59.7108 30.7430 45.6110
X 59.7108 30.7430 46.3110
X 59.7108 30.7430 47.0110
X 59.7108 30.7430 47.7110
X 59.7108 30.7430 48.4110
X 59.7108 30.7430 49.1110
X 59.7108 30.7430 49.8110
X 59.7108 30.7430 50.5110
X 59.7108 30.7430 59.6110
X 59.7108 30.7430 60.3110
X 59.7108 30.7430 61.0110
X 59.7108 30.7430 61.7110
X 59.7108 30.7430 62.4110
X 59.7108 30.7430 63.1110
X 59.7108 30.7430 63.8110
X 59.7108 30.7430 64.5110
X 59.7108 30.7430 65.2110
X 59.7108 30.7430 65.9110
X 60.4108 30.7430 44.9110
X 60.4108 30.7430 45.6110
X 60.4108 30.7430 46.3110
X 60.4108 30.7430 47.0110
X 60.4108 30.7430 47.7110
X 60.4108 30.7430 48.4110
X 60.4108 30.7430 49.1110
X 60.4108 30.7430 49.8110
X 60.4108 30.7430 59.6110
X 60.4108 30.7430 60.3110
X 60.4108 30.7430 61.0110
X 60.4108 30.7430 61.7110
X 60.4108 30.7430 62.4110
X 60.4108 30.7430 63.1110
X 60.4108 30.7430 63.8110
X 60.4108 30.7430 64.5110
X 60.4108 30.7430 65.2110
X 60.4108 30.7430 65.9110
X 61.1108 30.7430 44.9110
X 61.1108 30.7430 45.6110
X 61.1108 30.7430 46.3110
X 61.1108 30.7430 47.0110
X 61.1108 30.7430 47.7110
X 61.1108 30.7430 48.4110
X 61.1108 30.7430 49.1110
X 61.1108 30.7430 49.8110
X 61.1108 30.7430 59.6110
X 61.1108 30.7430 60.3110
X 61.1108 30.7430 61.0110
X 61.1108 30.7430 61.7110
X 61.1108 30.7430 62.4110
X 61.1108 30.7430 63.1110
X 61.1108 30.7430 63.8110
X 61.1108 30.7430 64.5110
X 61.1108 30.7430 65.2110
X 61.1108 30.7430 65.9110
X 61.8108 30.7430 44.9110
X 61.8108 30.7430 45.6110
X 61.8108 30.7430 46.3110
X 61.8108 30.7430 47.0110
X 61.8108 30.7430 47.7110
X 61.8108 30.7430 48.4110
X 61.8108 30.7430 49.1110
X 61.8108 30.7430 49.8110
X 61.8108 30.7430 59.6110
X 61.8108 30.7430 60.3110
X 61.8108 30.7430 61.0110
X 61.8108 30.7430 61.7110
X 61.8108 30.7430 62.4110
X 61.8108 30.7430 63.1110
X 61.8108 30.7430 63.8110
X 61.8108 30.7430 64.5110
X 61.8108 30.7430 65.2110
X 62.5108 30.7430 44.9110
X 62.5108 30.7430 45.6110
X 62.5108 30.7430 46.3110
X 62.5108 30.7430 47.0110
X 62.5108 30.7430 47.7110
X 62.5108 30.7430 48.4110
X 62.5108 30.7430 49.1110
X 62.5108 30.7430 49.8110
X 62.5108 30.7430 58.9110
X 62.5108 30.7430 59.6110
X 62.5108 30.7430 60.3110
X 62.5108 30.7430 61.0110
X 62.5108 30.7430 61.7110
X 62.5108 30.7430 62.4110
X 62.5108 30.7430 63.1110
X 62.5108 30.7430 63.8110
X 62.5108 30.7430 64.5110
X 62.5108 30.7430 65.2110
X 63.2108 30.7430 44.9110
X 63.2108 30.7430 45.6110
X 63.2108 30.7430 46.3110
X 63.2108 30.7430 47.0110
X 63.2108 30.7430 47.7110
X 63.2108 30.7430 48.4110
X 63.2108 30.7430 49.1110
X 63.2108 30.7430 49.8110
X 63.2108 30.7430 58.9110
X 63.2108 30.7430 59.6110
X 63.2108 30.7430 60.3110
X 63.2108 30.7430 61.0110
X 63.2108 30.7430 61.7110
X 63.2108 30.7430 62.4110
X 63.2108 30.7430 63.1110
X 63.2108 30.7430 63.8110
X 63.2108 30.7430 64.5110
X 63.2108 30.7430 65.2110
X 63.9108 30.7430 44.9110
X 63.9108 30.7430 45.6110
X 63.9108 30.7430 46.3110
X 63.9108 30.7430 47.0110
X 63.9108 30.7430 47.7110
X 63.9108 30.7430 48.4110
X 63.9108 30.7430 49.1110
X 63.9108 30.7430 49.8110
X 63.9108 30.7430 50.5110
X 63.9108 30.7430 58.9110
X 63.9108 30.7430 59.6110
X 63.9108 30.7430 60.3110
X 63.9108 30.7430 61.0110
X 63.9108 30.7430 61.7110
X 63.9108 30.7430 62.4110
X 63.9108 30.7430 63.1110
X 63.9108 30.7430 63.8110
X 63.9108 30.7430 64.5110
X 63.9108 30.7430 65.2110
X 64.6108 30.7430 45.6110
X 64.6108 30.7430 46.3110
X 64.6108 30.7430 47.0110
X 64.6108 30.7430 47.7110
X 64.6108 30.7430 48.4110
X 64.6108 30.7430 49.1110
X 64.6108 30.7430 49.8110
X 64.6108 30.7430 50.5110
X 64.6108 30.7430 51.2110
X 64.6108 30.7430 51.9110
X 64.6108 30.7430 57.5110
X 64.6108 30.7430 58.2110
X 64.6108 30.7430 58.9110
X 64.6108 30.7430 59.6110
X 64.6108 30.7430 60.3110
X 64.6108 30.7430 61.0110
X 64.6108 30.7430 61.7110
X 64.6108 30.7430 62.4110
X 64.6108 30.7430 63.1110
X 64.6108 30.7430 63.8110
X 64.6108 30.7430 64.5110
X 65.3108 30.7430 45.6110
X 65.3108 30.7430 46.3110
X 65.3108 30.7430 47.0110
X 65.3108 30.7430 47.7110
X 65.3108 30.7430 48.4110
X 65.3108 30.7430 49.1110
X 65.3108 30.7430 49.8110
X 65.3108 30.7430 50.5110
X 65.3108 30.7430 51.2110
X 65.3108 30.7430 51.9110
X 65.3108 30.7430 52.6110
X 65.3108 30.7430 53.3110
X 65.3108 30.7430 54.0110
X 65.3108 30.7430 54.7110
X 65.3108 30.7430 55.4110
X 65.3108 30.7430 56.1110
X 65.3108 30.7430 56.8110
X 65.3108 30.7430 57.5110
X 65.3108 30.7430 58.2110
X 65.3108 30.7430 58.9110
X 65.3108 30.7430 59.6110
X 65.3108 30.7430 60.3110
X 65.3108 30.7430 61.0110
X 65.3108 30.7430 61.7110
X 65.3108 30.7430 62.4110
X 65.3108 30.7430 63.1110
X 65.3108 30.7430 63.8110
X 65.3108 30.7430 64.5110
X 66.0108 30.7430 46.3110
X 66.0108 30.7430 47.0110
X 66.0108 30.7430 47.7110
X 66.0108 30.7430 48.4110
X 66.0108 30.7430 49.1110
X 66.0108 30.7430 49.8110
X 66.0108 30.7430 50.5110
X 66.0108 30.7430 51.2110
X 66.0108 30.7430 51.9110
X 66.0108 30.7430 52.6110
X 66.0108 30.7430 53.3110
X 66.0108 30.7430 54.0110
X 66.0108 30.7430 54.7110
X 66.0108 30.7430 55.4110
X 66.0108 30.7430 56.1110
X 66.0108 30.7430 56.8110
X 66.0108 30.7430 57.5110
X 66.0108 30.7430 58.2110
X 66.0108 30.7430 58.9110
X 66.0108 30.7430 59.6110
X 66.0108 30.7430 60.3110
X 66.0108 30.7430 61.0110
X 66.0108 30.7430 61.7110
X 66.0108 30.7430 62.4110
X 66.0108 30.7430 63.1110
X 66.0108 30.7430 63.8110
X 66.7108 30.7430 46.3110
X 66.7108 30.7430 47.0110
X 66.7108 30.7430 47.7110
X 66.7108 30.7430 48.4110
X 66.7108 30.7430 49.1110
X 66.7108 30.7430 49.8110
X 66.7108 30.7430 50.5110
X 66.7108 30.7430 51.2110
X 66.7108 30.7430 51.9110
X 66.7108 30.7430 52.6110
X 66.7108 30.7430 53.3110
X 66.7108 30.7430 54.0110
X 66.7108 30.7430 54.7110
X 66.7108 30.7430 55.4110
X 66.7108 30.7430 56.1110
X 66.7108 30.7430 56.8110
X 66.7108 30.7430 57.5110
X 66.7108 30.7430 58.2110
X 66.7108 30.7430 58.9110
X 66.7108 30.7430 59.6110
X 66.7108 30.7430 60.3110
X 66.7108 30.7430 61.0110
X 66.7108 30.7430 61.7110
X 66.7108 30.7430 62.4110
X 66.7108 30.7430 63.1110
X 67.4108 30.7430 47.0110
X 67.4108 30.7430 47.7110
X 67.4108 30.7430 48.4110
X 67.4108 30.7430 49.1110
X 67.4108 30.7430 49.8110
X 67.4108 30.7430 50.5110
X 67.4108 30.7430 51.2110
X 67.4108 30.7430 51.9110
X 67.4108 30.7430 52.6110
X 67.4108 30.7430 53.3110
X 67.4108 30.7430 54.0110
X 67.4108 30.7430 54.7110
X 67.4108 30.7430 55.4110
X 67.4108 30.7430 56.1110
X 67.4108 30.7430 56.8110
X 67.4108 30.7430 57.5110
X 67.4108 30.7430 58.2110
X 67.4108 30.7430 58.9110
X 67.4108 30.7430 59.6110
X 67.4108 30.7430 60.3110
X 67.4108 30.7430 61.0110
X 67.4108 30.7430 61.7110
X 67.4108 30.7430 62.4110
X 68.1108 30.7430 47.7110
X 68.1108 30.7430 48.4110
X 68.1108 30.7430 49.1110
X 68.1108 30.7430 49.8110
X 68.1108 30.7430 50.5110
X 68.1108 30.7430 51.2110
X 68.1108 30.7430 51.9110
X 68.1108 30.7430 52.6110
X 68.1108 30.7430 53.3110
X 68.1108 30.7430 54.0110
X 68.1108 30.7430 54.7110
X 68.1108 30.7430 55.4110
X 68.1108 30.7430 56.1110
X 68.1108 30.7430 56.8110
X 68.1108 30.7430 57.5110
X 68.1108 30.7430 58.2110
X 68.1108 30.7430 58.9110
X 68.1108 30.7430 59.6110
X 68.1108 30.7430 60.3110
X 68.1108 30.7430 61.0110
X 68.1108 30.7430 61.7110
X 68.8108 30.7430 48.4110
X 68.8108 30.7430 49.1110
X 68.8108 30.7430 49.8110
X 68.8108 30.7430 50.5110
X 68.8108 30.7430 51.2110
X 68.8108 30.7430 51.9110
X 68.8108 30.7430 52.6110
X 68.8108 30.7430 53.3110
X 68.8108 30.7430 54.0110
X 68.8108 30.7430 54.7110
X 68.8108 30.7430 55.4110
X 68.8108 30.7430 56.1110
X 68.8108 30.7430 56.8110
X 68.8108 30.7430 57.5110
X 68.8108 30.7430 58.2110
X 68.8108 30.7430 58.9110
X 68.8108 30.7430 59.6110
X 68.8108 30.7430 60.3110
X 68.8108 30.7430 61.0110
X 69.5108 30.7430 49.8110
X 69.5108 30.7430 50.5110
X 69.5108 30.7430 51.2110
X 69.5108 30.7430 51.9110
X 69.5108 30.7430 52.6110
X 69.5108 30.7430 53.3110
X 69.5108 30.7430 54.0110
X 69.5108 30.7430 54.7110
X 69.5108 30.7430 55.4110
X 69.5108 30.7430 56.1110
X 69.5108 30.7430 56.8110
X 69.5108 30.7430 57.5110
X 69.5108 30.7430 58.2110
X 69.5108 30.7430 58.9110
X 69.5108 30.7430 59.6110
X 70.2108 30.7430 51.9110
X 70.2108 30.7430 52.6110
X 70.2108 30.7430 53.3110
X 70.2108 30.7430 54.0110
X 70.2108 30.7430 54.7110
X 70.2108 30.7430 55.4110
X 70.2108 30.7430 56.1110
X 70.2108 30.7430 56.8110
X 70.2108 30.7430 57.5110
X 70.2108 30.7430 58.2110
X 46.4108 31.4430 54.0110
X 46.4108 31.4430 54.7110
X 46.4108 31.4430 55.4110
X 46.4108 31.4430 56.1110
X 47.1108 31.4430 51.9110
X 47.1108 31.4430 52.6110
X 47.1108 31.4430 53.3110
X 47.1108 31.4430 54.0110
X 47.1108 31.4430 54.7110
X 47.1108 31.4430 55.4110
X 47.1108 31.4430 56.1110
X 47.1108 31.4430 56.8110
X 47.1108 31.4430 57.5110
X 47.1108 31.4430 58.2110
X 47.8108 31.4430 50.5110
X 47.8108 31.4430 51.2110
X 47.8108 31.4430 51.9110
X 47.8108 31.4430 52.6110
X 47.8108 31.4430 53.3110
X 47.8108 31.4430 54.0110
X 47.8108 31.4430 54.7110
X 47.8108 31.4430 55.4110
X 47.8108 31.4430 56.1110
X 47.8108 31.4430 56.8110
X 47.8108 31.4430 57.5110
X 47.8108 31.4430 58.2110
X 47.8108 31.4430 58.9110
X 47.8108 31.4430 59.6110
X 48.5108 31.4430 49.8110
X 48.5108 31.4430 50.5110
X 48.5108 31.4430 51.2110
X 48.5108 31.4430 51.9110
X 48.5108 31.4430 52.6110
X 48.5108 31.4430 53.3110
X 48.5108 31.4430 54.0110
X 48.5108 31.4430 54.7110
X 48.5108 31.4430 55.4110
X 48.5108 31.4430 56.1110
X 48.5108 31.4430 56.8110
X 48.5108 31.4430 57.5110
X 48.5108 31.4430 58.2110
X 48.5108 31.4430 58.9110
X 48.5108 31.4430 59.6110
X 48.5108 31.4430 60.3110
X 49.2108 31.4430 49.1110
X 49.2108 31.4430 49.8110
X 49.2108 31.4430 50.5110
X 49.2108 31.4430 51.2110
X 49.2108 31.4430 51.9110
X 49.2108 31.4430 52.6110
X 49.2108 31.4430 53.3110
X 49.2108 31.4430 54.0110
X 49.2108 31.4430 54.7110
X 49.2108 31.4430 55.4110
X 49.2108 31.4430 56.1110
X 49.2108 31.4430 56.8110
X 49.2108 31.4430 57.5110
X 49.2108 31.4430 58.2110
X 49.2108 31.4430 58.9110
X 49.2108 31.4430 59.6110
X 49.2108 31.4430 60.3110
X 49.2108 31.4430 61.0110
X 49.9108 31.4430 48.4110
X 49.9108 31.4430 49.1110
X 49.9108 31.4430 49.8110
X 49.9108 31.4430 50.5110
X 49.9108 31.4430 51.2110
X 49.9108 31.4430 51.9110
X 49.9108 31.4430 52.6110
X 49.9108 31.4430 53.3110
X 49.9108 31.4430 54.0110
X 49.9108 31.4430 54.7110
X 49.9108 31.4430 55.4110
X 49.9108 31.4430 56.1110
X 49.9108 31.4430 56.8110
X 49.9108 31.4430 57.5110
X 49.9108 31.4430 58.2110
X 49.9108 31.4430 58.9110
X 49.9108 31.4430 59.6110
X 49.9108 31.4430 60.3110
X 49.9108 31.4430 61.0110
X 49.9108 31.4430 61.7110
X 50.6108 31.4430 47.7110
X 50.6108 31.4430 48.4110
X 50.6108 31.4430 49.1110
X 50.6108 31.4430 49.8110
X 50.6108 31.4430 50.5110
X 50.6108 31.4430 51.2110
X 50.6108 31.4430 51.9110
X 50.6108 31.4430 52.6110
X 50.6108 31.4430 53.3110
X 50.6108 31.4430 54.0110
X 50.6108 31.4430 54.7110
X 50.6108 31.4430 55.4110
X 50.6108 31.4430 56.1110
X 50.6108 31.4430 56.8110
X 50.6108 31.4430 57.5110
X 50.6108 31.4430 58.2110
X 50.6108 31.4430 58.9110
X 50.6108 31.4430 59.6110
X 50.6108 31.4430 60.3110
X 50.6108 31.4430 61.0110
X 50.6108 31.4430 61.7110
X 50.6108 31.4430 62.4110
X 51.3108 31.4430 47.0110
X 51.3108 31.4430 47.7110
X 51.3108 31.4430 48.4110
X 51.3108 31.4430 49.1110
X 51.3108 31.4430 49.8110
X 51.3108 31.4430 50.5110
X 51.3108 31.4430 51.2110
X 51.3108 31.4430 51.9110
X 51.3108 31.4430 52.6110
X 51.3108 31.4430 53.3110
X 51.3108 31.4430 54.0110
X 51.3108 31.4430 54.7110
X 51.3108 31.4430 55.4110
X 51.3108 31.4430 56.1110
X 51.3108 31.4430 56.8110
X 51.3108 31.4430 57.5110
X 51.3108 31.4430 58.2110
X 51.3108 31.4430 58.9110
X 51.3108 31.4430 59.6110
X 51.3108 31.4430 60.3110
X 51.3108 31.4430 61.0110
X 51.3108 31.4430 61.7110
X 51.3108 31.4430 62.4110
X 51.3108 31.4430 63.1110
X 52.0108 31.4430 47.0110
X 52.0108 31.4430 47.7110
X 52.0108 31.4430 48.4110
X 52.0108 31.4430 49.1110
X 52.0108 31.4430 49.8110
X 52.0108 31.4430 50.5110
X 52.0108 31.4430 51.2110
X 52.0108 31.4430 51.9110
X 52.0108 31.4430 52.6110
X 52.0108 31.4430 53.3110
X 52.0108 31.4430 54.0110
X 52.0108 31.4430 54.7110
X 52.0108 31.4430 55.4110
X 52.0108 31.4430 56.1110
X 52.0108 31.4430 56.8110
X 52.0108 31.4430 57.5110
X 52.0108 31.4430 58.2110
X 52.0108 31.4430 58.9110
X 52.0108 31.4430 59.6110
X 52.0108 31.4430 60.3110
X 52.0108 31.4430 61.0110
X 52.0108 31.4430 61.7110
X 52.0108 31.4430 62.4110
X 52.0108 31.4430 63.1110
X 52.0108 31.4430 63.8110
X 52.7108 31.4430 46.3110
X 52.7108 31.4430 47.0110
X 52.7108 31.4430 47.7110
X 52.7108 31.4430 48.4110
X 52.7108 31.4430 49.1110
X 52.7108 31.4430 49.8110
X 52.7108 31.4430 50.5110
X 52.7108 31.4430 51.2110
X 52.7108 31.4430 51.9110
X 52.7108 31.4430 52.6110
X 52.7108 31.4430 53.3110
X 52.7108 31.4430 56.1110
X 52.7108 31.4430 56.8110
X 52.7108 31.4430 57.5110
X 52.7108 31.4430 58.2110
X 52.7108 31.4430 58.9110
X 52.7108 31.4430 59.6110
X 52.7108 31.4430 60.3110
X 52.7108 31.4430 61.0110
X 52.7108 31.4430 61.7110
X 52.7108 31.4430 62.4110
X 52.7108 31.4430 63.1110
X 52.7108 31.4430 63.8110
X 52.7108 31.4430 64.5110
X 53.4108 31.4430 46.3110
X 53.4108 31.4430 47.0110
X 53.4108 31.4430 47.7110
X 53.4108 31.4430 48.4110
X 53.4108 31.4430 49.1110
X 53.4108 31.4430 49.8110
X 53.4108 31.4430 50.5110
X 53.4108 31.4430 51.2110
X 53.4108 31.4430 51.9110
X 53.4108 31.4430 56.8110
X 53.4108 31.4430 57.5110
X 53.4108 31.4430 58.2110
X 53.4108 31.4430 58.9110
X 53.4108 31.4430 59.6110
X 53.4108 31.4430 60.3110
X 53.4108 31.4430 61.0110
X 53.4108 31.4430 61.7110
X 53.4108 31.4430 62.4110
X 53.4108 31.4430 63.1110
X 53.4108 31.4430 63.8110
X 53.4108 31.4430 64.5110
X 54.1108 31.4430 45.6110
X 54.1108 31.4430 46.3110
X 54.1108 31.4430 47.0110
X 54.1108 31.4430 47.7110
X 54.1108 31.4430 48.4110
X 54.1108 31.4430 49.1110
X 54.1108 31.4430 49.8110
X 54.1108 31.4430 50.5110
X 54.1108 31.4430 51.2110
X 54.1108 31.4430 57.5110
X 54.1108 31.4430 58.2110
X 54.1108 31.4430 58.9110
X 54.1108 31.4430 59.6110
X 54.1108 31.4430 60.3110
X 54.1108 31.4430 61.0110
X 54.1108 31.4430 61.7110
X 54.1108 31.4430 62.4110
X 54.1108 31.4430 63.1110
X 54.1108 31.4430 63.8110
X 54.1108 31.4430 64.5110
X 54.1108 31.4430 65.2110
X 54.8108 31.4430 45.6110
X 54.8108 31.4430 46.3110
X 54.8108 31.4430 47.0110
X 54.8108 31.4430 47.7110
X 54.8108 31.4430 48.4110
X 54.8108 31.4430 49.1110
X 54.8108 31.4430 49.8110
X 54.8108 31.4430 50.5110
X 54.8108 31.4430 58.9110
X 54.8108 31.4430 59.6110
X 54.8108 31.4430 60.3110
X 54.8108 31.4430 61.0110
X 54.8108 31.4430 61.7110
X 54.8108 31.4430 62.4110
X 54.8108 31.4430 63.1110
X 54.8108 31.4430 63.8110
X 54.8108 31.4430 64.5110
X 54.8108 31.4430 65.2110
X 55.5108 31.4430 45.6110
X 55.5108 31.4430 46.3110
X 55.5108 31.4430 47.0110
X 55.5108 31.4430 47.7110
X 55.5108 31.4430 48.4110
X 55.5108 31.4430 49.1110
X 55.5108 31.4430 49.8110
X 55.5108 31.4430 50.5110
X 55.5108 31.4430 59.6110
X 55.5108 31.4430 60.3110
X 55.5108 31.4430 61.0110
X 55.5108 31.4430 61.7110
X 55.5108 31.4430 62.4110
X 55.5108 31.4430 63.1110
X 55.5108 31.4430 63.8110
X 55.5108 31.4430 64.5110
X 55.5108 31.4430 65.2110
X 56.2108 31.4430 45.6110
X 56.2108 31.4430 46.3110
X 56.2108 31.4430 47.0110
X 56.2108 31.4430 47.7110
X 56.2108 31.4430 48.4110
X 56.2108 31.4430 49.1110
X 56.2108 31.4430 49.8110
X 56.2108 31.4430 50.5110
X 56.2108 31.4430 60.3110
X 56.2108 31.4430 61.0110
X 56.2108 31.4430 61.7110
X 56.2108 31.4430 62.4110
X 56.2108 31.4430 63.1110
X 56.2108 31.4430 63.8110
X 56.2108 31.4430 64.5110
X 56.2108 31.4430 65.2110
X 56.2108 31.4430 65.9110
X 56.9108 31.4430 45.6110
X 56.9108 31.4430 46.3110
X 56.9108 31.4430 47.0110
X 56.9108 31.4430 47.7110
X 56.9108 31.4430 48.4110
X 56.9108 31.4430 49.1110
X 56.9108 31.4430 49.8110
X 56.9108 31.4430 50.5110
X 56.9108 31.4430 60.3110
X 56.9108 31.4430 61.0110
X 56.9108 31.4430 61.7110
X 56.9108 31.4430 62.4110
X 56.9108 31.4430 63.1110
X 56.9108 31.4430 63.8110
X 56.9108 31.4430 64.5110
X 56.9108 31.4430 65.2110
X 56.9108 31.4430 65.9110
X 57.6108 31.4430 44.9110
X 57.6108 31.4430 45.6110
X 57.6108 31.4430 46.3110
X 57.6108 31.4430 47.0110
X 57.6108 31.4430 47.7110
X 57.6108 31.4430 48.4110
X 57.6108 31.4430 49.1110
X 57.6108 31.4430 49.8110
X 57.6108 31.4430 50.5110
X 57.6108 31.4430 60.3110
X 57.6108 31.4430 61.0110
X 57.6108 31.4430 61.7110
X 57.6108 31.4430 62.4110
X 57.6108 31.4430 63.1110
X 57.6108 31.4430 63.8110
X 57.6108 31.4430 64.5110
X 57.6108 31.4430 65.2110
X 57.6108 31.4430 65.9110
X 58.3108 31.4430 44.9110
X 58.3108 31.4430 45.6110
X 58.3108 31.4430 46.3110
X 58.3108 31.4430 47.0110
X 58.3108 31.4430 47.7110
X 58.3108 31.4430 48.4110
X 58.3108 31.4430 49.1110
X 58.3108 31.4430 49.8110
X 58.3108 31.4430 50.5110
X 58.3108 31.4430 60.3110
X 58.3108 31.4430 61.0110
X 58.3108 31.4430 61.7110
X 58.3108 31.4430 62.4110
X 58.3108 31.4430 63.1110
X 58.3108 31.4430 63.8110
X 58.3108 31.4430 64.5110
X 58.3108 31.4430 65.2110
X 58.3108 31.4430 65.9110
X 59.0108 31.4430 44.9110
X 59.0108 31.4430 45.6110
X 59.0108 31.4430 46.3110
X 59.0108 31.4430 47.0110
X 59.0108 31.4430 47.7110
X 59.0108 31.4430 48.4110
X 59.0108 31.4430 49.1110
X 59.0108 31.4430 49.8110
X 59.0108 31.4430 50.5110
X 59.0108 31.4430 60.3110
X 59.0108 31.4430 61.0110
X 59.0108 31.4430 61.7110
X 59.0108 31.4430 62.4110
X 59.0108 31.4430 63.1110
X 59.0108 31.4430 63.8110
X 59.0108 31.4430 64.5110
X 59.0108 31.4430 65.2110
X 59.0108 31.4430 65.9110
X 59.7108 31.4430 44.9110
X 59.7108 31.4430 45.6110
X 59.7108 31.4430 46.3110
X 59.7108 31.4430 47.0110
X 59.7108 31.4430 47.7110
X 59.7108 31.4430 48.4110
X 59.7108 31.4430 49.1110
X 59.7108 31.4430 49.8110
X 59.7108 31.4430 60.3110
X 59.7108 31.4430 61.0110
X 59.7108 31.4430 61.7110
X 59.7108 31.4430 62.4110
X 59.7108 31.4430 63.1110
X 59.7108 31.4430 63.8110
X 59.7108 31.4430 64.5110
X 59.7108 31.4430 65.2110
X 59.7108 31.4430 65.9110
X 60.4108 31.4430 44.9110
X 60.4108 31.4430 45.6110
X 60.4108 31.4430 46.3110
X 60.4108 31.4430 47.0110
X 60.4108 31.4430 47.7110
X 60.4108 31.4430 48.4110
X 60.4108 31.4430 49.1110
X 60.4108 31.4430 49.8110
X 60.4108 31.4430 60.3110
X 60.4108 31.4430 61.0110
X 60.4108 31.4430 61.7110
X 60.4108 31.4430 62.4110
X 60.4108 31.4430 63.1110
X 60.4108 31.4430 63.8110
X 60.4108 31.4430 64.5110
X 60.4108 31.4430 65.2110
X 60.4108 31.4430 65.9110
X 61.1108 31.4430 44.9110
X 61.1108 31.4430 45.6110
X 61.1108 31.4430 46.3110
X 61.1108 31.4430 47.0110
X 61.1108 31.4430 47.7110
X 61.1108 31.4430 48.4110
X 61.1108 31.4430 49.1110
X 61.1108 31.4430 49.8110
X 61.1108 31.4430 59.6110
X 61.1108 31.4430 60.3110
X 61.1108 31.4430 61.0110
X 61.1108 31.4430 61.7110
X 61.1108 31.4430 62.4110
X 61.1108 31.4430 63.1110
X 61.1108 31.4430 63.8110
X 61.1108 31.4430 64.5110
X 61.1108 31.4430 65.2110
X 61.1108 31.4430 65.9110
X 61.8108 31.4430 44.9110
X 61.8108 31.4430 45.6110
X 61.8108 31.4430 46.3110
X 61.8108 31.4430 47.0110
X 61.8108 31.4430 47.7110
X 61.8108 31.4430 48.4110
X 61.8108 31.4430 49.1110
X 61.8108 31.4430 49.8110
X 61.8108 31.4430 59.6110
X 61.8108 31.4430 60.3110
X 61.8108 31.4430 61.0110
X 61.8108 31.4430 61.7110
X 61.8108 31.4430 62.4110
X 61.8108 31.4430 63.1110
X 61.8108 31.4430 63.8110
X 61.8108 31.4430 64.5110
X 61.8108 31.4430 65.2110
X 61.8108 31.4430 65.9110
X 62.5108 31.4430 44.9110
X 62.5108 31.4430 45.6110
X 62.5108 31.4430 46.3110
X 62.5108 31.4430 47.0110
X 62.5108 31.4430 47.7110
X 62.5108 31.4430 48.4110
X 62.5108 31.4430 49.1110
X 62.5108 31.4430 49.8110
X 62.5108 31.4430 59.6110
X 62.5108 31.4430 60.3110
X 62.5108 31.4430 61.0110
X 62.5108 31.4430 61.7110
X 62.5108 31.4430 62.4110
X 62.5108 31.4430 63.1110
X 62.5108 31.4430 63.8110
X 62.5108 31.4430 64.5110
X 62.5108 31.4430 65.2110
X 62.5108 31.4430 65.9110
X 63.2108 31.4430 44.9110
X 63.2108 31.4430 45.6110
X 63.2108 31.4430 46.3110
X 63.2108 31.4430 47.0110
X 63.2108 31.4430 47.7110
X 63.2108 31.4430 48.4110
X 63.2108 31.4430 49.1110
X 63.2108 31.4430 49.8110
X 63.2108 31.4430 58.9110
X 63.2108 31.4430 59.6110
X 63.2108 31.4430 60.3110
X 63.2108 31.4430 61.0110
X 63.2108 31.4430 61.7110
X 63.2108 31.4430 62.4110
X 63.2108 31.4430 63.1110
X 63.2108 31.4430 63.8110
X 63.2108 31.4430 64.5110
X 63.2108 31.4430 65.2110
X 63.9108 31.4430 44.9110
X 63.9108 31.4430 45.6110
X 63.9108 31.4430 46.3110
X 63.9108 31.4430 47.0110
X 63.9108 31.4430 47.7110
X 63.9108 31.4430 48.4110
X 63.9108 31.4430 49.1110
X 63.9108 31.4430 49.8110
X 63.9108 31.4430 50.5110
X 63.9108 31.4430 58.9110
X 63.9108 31.4430 59.6110
X 63.9108 31.4430 60.3110
X 63.9108 31.4430 61.0110
X 63.9108 31.4430 61.7110
X 63.9108 31.4430 62.4110
X 63.9108 31.4430 63.1110
X 63.9108 31.4430 63.8110
X 63.9108 31.4430 64.5110
X 63.9108 31.4430 65.2110
X 64.6108 31.4430 45.6110
X 64.6108 31.4430 46.3110
X 64.6108 31.4430 47.0110
X 64.6108 31.4430 47.7110
X 64.6108 31.4430 48.4110
X 64.6108 31.4430 49.1110
X 64.6108 31.4430 49.8110
X 64.6108 31.4430 50.5110
X 64.6108 31.4430 51.2110
X 64.6108 31.4430 58.2110
X 64.6108 31.4430 58.9110
X 64.6108 31.4430 59.6110
X 64.6108 31.4430 60.3110
X 64.6108 31.4430 61.0110
X 64.6108 31.4430 61.7110
X 64.6108 31.4430 62.4110
X 64.6108 31.4430 63.1110
X 64.6108 31.4430 63.8110
X 64.6108 31.4430 64.5110
X 65.3108 31.4430 45.6110
X 65.3108 31.4430 46.3110
X 65.3108 31.4430 47.0110
X 65.3108 31.4430 47.7110
X 65.3108 31.4430 48.4110
X 65.3108 31.4430 49.1110
X 65.3108 31.4430 49.8110
X 65.3108 31.4430 50.5110
X 65.3108 31.4430 51.2110
X 65.3108 31.4430 51.9110
X 65.3108 31.4430 52.6110
X 65.3108 31.4430 53.3110
X 65.3108 31.4430 54.0110
X 65.3108 31.4430 54.7110
X 65.3108 31.4430 56.1110
X 65.3108 31.4430 56.8110
X 65.3108 31.4430 57.5110
X 65.3108 31.4430 58.2110
X 65.3108 31.4430 58.9110
X 65.3108 31.4430 59.6110
X 65.3108 31.4430 60.3110
X 65.3108 31.4430 61.0110
X 65.3108 31.4430 61.7110
X 65.3108 31.4430 62.4110
X 65.3108 31.4430 63.1110
X 65.3108 31.4430 63.8110
X 65.3108 31.4430 64.5110
X 66.0108 31.4430 45.6110
X 66.0108 31.4430 46.3110
X 66.0108 31.4430 47.0110
X 66.0108 31.4430 47.7110
X 66.0108 31.4430 48.4110
X 66.0108 31.4430 49.1110
X 66.0108 31.4430 49.8110
X 66.0108 31.4430 50.5110
X 66.0108 31.4430 51.2110
X 66.0108 31.4430 51.9110
X 66.0108 31.4430 52.6110
X 66.0108 31.4430 53.3110
X 66.0108 31.4430 54.0110
X 66.0108 31.4430 54.7110
X 66.0108 31.4430 55.4110
X 66.0108 31.4430 56.1110
X 66.0108 31.4430 56.8110
X 66.0108 31.4430 57.5110
X 66.0108 31.4430 58.2110
X 66.0108 31.4430 58.9110
X 66.0108 31.4430 59.6110
X 66.0108 31.4430 60.3110
X 66.0108 31.4430 61.0110
X 66.0108 31.4430 61.7110
X 66.0108 31.4430 62.4110
X 66.0108 31.4430 63.1110
X 66.0108 31.4430 63.8110
X 66.7108 31.4430 46.3110
X 66.7108 31.4430 47.0110
X 66.7108 31.4430 47.7110
X 66.7108 31.4430 48.4110
X 66.7108 31.4430 49.1110
X 66.7108 31.4430 49.8110
X 66.7108 31.4430 50.5110
X 66.7108 31.4430 51.2110
X 66.7108 31.4430 51.9110
X 66.7108 31.4430 52.6110
X 66.7108 31.4430 53.3110
X 66.7108 31.4430 54.0110
X 66.7108 31.4430 54.7110
X 66.7108 31.4430 55.4110
X 66.7108 31.4430 56.1110
X 66.7108 31.4430 56.8110
X 66.7108 31.4430 57.5110
X 66.7108 31.4430 58.2110
X 66.7108 31.4430 58.9110
X 66.7108 31.4430 59.6110
X 66.7108 31.4430 60.3110
X 66.7108 31.4430 61.0110
X 66.7108 31.4430 61.7110
X 66.7108 31.4430 62.4110
X 66.7108 31.4430 63.1110
X 67.4108 31.4430 47.0110
X 67.4108 31.4430 47.7110
X 67.4108 31.4430 48.4110
X 67.4108 31.4430 49.1110
X 67.4108 31.4430 49.8110
X 67.4108 31.4430 50.5110
X 67.4108 31.4430 51.2110
X 67.4108 31.4430 51.9110
X 67.4108 31.4430 52.6110
X 67.4108 31.4430 53.3110
X 67.4108 31.4430 54.0110
X 67.4108 31.4430 54.7110
X 67.4108 31.4430 55.4110
X 67.4108 31.4430 56.1110
X 67.4108 31.4430 56.8110
X 67.4108 31.4430 57.5110
X 67.4108 31.4430 58.2110
X 67.4108 31.4430 58.9110
X 67.4108 31.4430 59.6110
X 67.4108 31.4430 60.3110
X 67.4108 31.4430 61.0110
X 67.4108 31.4430 61.7110
X 67.4108 31.4430 62.4110
X 68.1108 31.4430 47.7110
X 68.1108 31.4430 48.4110
X 68.1108 31.4430 49.1110
X 68.1108 31.4430 49.8110
X 68.1108 31.4430 50.5110
X 68.1108 31.4430 51.2110
X 68.1108 31.4430 51.9110
X 68.1108 31.4430 52.6110
X 68.1108 31.4430 53.3110
X 68.1108 31.4430 54.0110
X 68.1108 31.4430 54.7110
X 68.1108 31.4430 55.4110
X 68.1108 31.4430 56.1110
X 68.1108 31.4430 56.8110
X 68.1108 31.4430 57.5110
X 68.1108 31.4430 58.2110
X 68.1108 31.4430 58.9110
X 68.1108 31.4430 59.6110
X 68.1108 31.4430 60.3110
X 68.1108 31.4430 61.0110
X 68.1108 31.4430 61.7110
X 68.8108 31.4430 48.4110
X 68.8108 31.4430 49.1110
X 68.8108 31.4430 49.8110
X 68.8108 31.4430 50.5110
X 68.8108 31.4430 51.2110
X 68.8108 31.4430 51.9110
X 68.8108 31.4430 52.6110
X 68.8108 31.4430 53.3110
X 68.8108 31.4430 54.0110
X 68.8108 31.4430 54.7110
X 68.8108 31.4430 55.4110
X 68.8108 31.4430 56.1110
X 68.8108 31.4430 56.8110
X 68.8108 31.4430 57.5110
X 68.8108 31.4430 58.2110
X 68.8108 31.4430 58.9110
X 68.8108 31.4430 59.6110
X 68.8108 31.4430 60.3110
X 68.8108 31.4430 61.0110
X 69.5108 31.4430 49.8110
X 69.5108 31.4430 50.5110
X 69.5108 31.4430 51.2110
X 69.5108 31.4430 51.9110
X 69.5108 31.4430 52.6110
X 69.5108 31.4430 53.3110
X 69.5108 31.4430 54.0110
X 69.5108 31.4430 54.7110
X 69.5108 31.4430 55.4110
X 69.5108 31.4430 56.1110
X 69.5108 31.4430 56.8110
X 69.5108 31.4430 57.5110
X 69.5108 31.4430 58.2110
X 69.5108 31.4430 58.9110
X 69.5108 31.4430 59.6110
X 70.2108 31.4430 51.2110
X 70.2108 31.4430 51.9110
X 70.2108 31.4430 52.6110
X 70.2108 31.4430 53.3110
X 70.2108 31.4430 54.0110
X 70.2108 31.4430 54.7110
X 70.2108 31.4430 55.4110
X 70.2108 31.4430 56.1110
X 70.2108 31.4430 56.8110
X 70.2108 31.4430 57.5110
X 70.2108 31.4430 58.2110
X 46.4108 32.1430 54.0110
X 46.4108 32.1430 54.7110
X 46.4108 32.1430 55.4110
X 46.4108 32.1430 56.1110
X 47.1108 32.1430 51.9110
X 47.1108 32.1430 52.6110
X 47.1108 32.1430 53.3110
X 47.1108 32.1430 54.0110
X 47.1108 32.1430 54.7110
X 47.1108 32.1430 55.4110
X 47.1108 32.1430 56.1110
X 47.1108 32.1430 56.8110
X 47.1108 32.1430 57.5110
X 47.1108 32.1430 58.2110
X 47.8108 32.1430 50.5110
X 47.8108 32.1430 51.2110
X 47.8108 32.1430 51.9110
X 47.8108 32.1430 52.6110
X 47.8108 32.1430 53.3110
X 47.8108 32.1430 54.0110
X 47.8108 32.1430 54.7110
X 47.8108 32.1430 55.4110
X 47.8108 32.1430 56.1110
X 47.8108 32.1430 56.8110
X 47.8108 32.1430 57.5110
X 47.8108 32.1430 58.2110
X 47.8108 32.1430 58.9110
X 47.8108 32.1430 59.6110
X 48.5108 32.1430 49.8110
X 48.5108 32.1430 50.5110
X 48.5108 32.1430 51.2110
X 48.5108 32.1430 51.9110
X 48.5108 32.1430 52.6110
X 48.5108 32.1430 53.3110
X 48.5108 32.1430 54.0110
X 48.5108 32.1430 54.7110
X 48.5108 32.1430 55.4110
X 48.5108 32.1430 56.1110
X 48.5108 32.1430 56.8110
X 48.5108 32.1430 57.5110
X 48.5108 32.1430 58.2110
X 48.5108 32.1430 58.9110
X 48.5108 32.1430 59.6110
X 48.5108 32.1430 60.3110
X 49.2108 32.1430 49.1110
X 49.2108 32.1430 49.8110
X 49.2108 32.1430 50.5110
X 49.2108 32.1430 51.2110
X 49.2108 32.1430 51.9110
X 49.2108 32.1430 52.6110
X 49.2108 32.1430 53.3110
X 49.2108 32.1430 54.0110
X 49.2108 32.1430 54.7110
X 49.2108 32.1430 55.4110
X 49.2108 32.1430 56.1110
X 49.2108 32.1430 56.8110
X 49.2108 32.1430 57.5110
X 49.2108 32.1430 58.2110
X 49.2108 32.1430 58.9110
X 49.2108 32.1430 59.6110
X 49.2108 32.1430 60.3110
X 49.2108 32.1430 61.0110
X 49.9108 32.1430 48.4110
X 49.9108 32.1430 49.1110
X 49.9108 32.1430 49.8110
X 49.9108 32.1430 50.5110
X 49.9108 32.1430 51.2110
X 49.9108 32.1430 51.9110
X 49.9108 32.1430 52.6110
X 49.9108 32.1430 53.3110
X 49.9108 32.1430 54.0110
X 49.9108 32.1430 54.7110
X 49.9108 32.1430 55.4110
X 49.9108 32.1430 56.1110
X 49.9108 32.1430 56.8110
X 49.9108 32.1430 57.5110
X 49.9108 32.1430 58.2110
X 49.9108 32.1430 58.9110
X 49.9108 32.1430 59.6110
X 49.9108 32.1430 60.3110
X 49.9108 32.1430 61.0110
X 49.9108 32.1430 61.7110
X 50.6108 32.1430 47.7110
X 50.6108 32.1430 48.4110
X 50.6108 32.1430 49.1110
X 50.6108 32.1430 49.8110
X 50.6108 32.1430 50.5110
X 50.6108 32.1430 51.2110
X 50.6108 32.1430 51.9110
X 50.6108 32.1430 52.6110
X 50.6108 32.1430 53.3110
X 50.6108 32.1430 54.0110
X 50.6108 32.1430 54.7110
X 50.6108 32.1430 55.4110
X 50.6108 32.1430 56.1110
X 50.6108 32.1430 56.8110
X 50.6108 32.1430 57.5110
X 50.6108 32.1430 58.2110
X 50.6108 32.1430 58.9110
X 50.6108 32.1430 59.6110
X 50.6108 32.1430 60.3110
X 50.6108 32.1430 61.0110
X 50.6108 32.1430 61.7110
X 50.6108 32.1430 62.4110
X 51.3108 32.1430 47.0110
X 51.3108 32.1430 47.7110
X 51.3108 32.1430 48.4110
X 51.3108 32.1430 49.1110
X 51.3108 32.1430 49.8110
X 51.3108 32.1430 50.5110
X 51.3108 32.1430 51.2110
X 51.3108 32.1430 51.9110
X 51.3108 32.1430 52.6110
X 51.3108 32.1430 53.3110
X 51.3108 32.1430 54.0110
X 51.3108 32.1430 54.7110
X 51.3108 32.1430 55.4110
X 51.3108 32.1430 56.1110
X 51.3108 32.1430 56.8110
X 51.3108 32.1430 57.5110
X 51.3108 32.1430 58.2110
X 51.3108 32.1430 58.9110
X 51.3108 32.1430 59.6110
X 51.3108 32.1430 60.3110
X 51.3108 32.1430 61.0110
X 51.3108 32.1430 61.7110
X 51.3108 32.1430 62.4110
X 51.3108 32.1430 63.1110
X 52.0108 32.1430 47.0110
X 52.0108 32.1430 47.7110
X 52.0108 32.1430 48.4110
X 52.0108 32.1430 49.1110
X 52.0108 32.1430 49.8110
X 52.0108 32.1430 50.5110
X 52.0108 32.1430 51.2110
X 52.0108 32.1430 51.9110
X 52.0108 32.1430 52.6110
X 52.0108 32.1430 53.3110
X 52.0108 32.1430 54.0110
X 52.0108 32.1430 54.7110
X 52.0108 32.1430 55.4110
X 52.0108 32.1430 56.1110
X 52.0108 32.1430 56.8110
X 52.0108 32.1430 57.5110
X 52.0108 32.1430 58.2110
X 52.0108 32.1430 58.9110
X 52.0108 32.1430 59.6110
X 52.0108 32.1430 60.3110
X 52.0108 32.1430 61.0110
X 52.0108 32.1430 61.7110
X 52.0108 32.1430 62.4110
X 52.0108 32.1430 63.1110
X 52.0108 32.1430 63.8110
X 52.7108 32.1430 46.3110
X 52.7108 32.1430 47.0110
X 52.7108 32.1430 47.7110
X 52.7108 32.1430 48.4110
X 52.7108 32.1430 49.1110
X 52.7108 32.1430 49.8110
X 52.7108 32.1430 50.5110
X 52.7108 32.1430 51.2110
X 52.7108 32.1430 51.9110
X 52.7108 32.1430 52.6110
X 52.7108 32.1430 56.1110
X 52.7108 32.1430 56.8110
X 52.7108 32.1430 57.5110
X 52.7108 32.1430 58.2110
X 52.7108 32.1430 58.9110
X 52.7108 32.1430 59.6110
X 52.7108 32.1430 60.3110
X 52.7108 32.1430 61.0110
X 52.7108 32.1430 61.7110
X 52.7108 32.1430 62.4110
X 52.7108 32.1430 63.1110
X 52.7108 32.1430 63.8110
X 52.7108 32.1430 64.5110
X 53.4108 32.1430 46.3110
X 53.4108 32.1430 47.0110
X 53.4108 32.1430 47.7110
X 53.4108 32.1430 48.4110
X 53.4108 32.1430 49.1110
X 53.4108 32.1430 49.8110
X 53.4108 32.1430 50.5110
X 53.4108 32.1430 51.2110
X 53.4108 32.1430 51.9110
X 53.4108 32.1430 57.5110
X 53.4108 32.1430 58.2110
X 53.4108 32.1430 58.9110
X 53.4108 32.1430 59.6110
X 53.4108 32.1430 60.3110
X 53.4108 32.1430 61.0110
X 53.4108 32.1430 61.7110
X 53.4108 32.1430 62.4110
X 53.4108 32.1430 63.1110
X 53.4108 32.1430 63.8110
X 53.4108 32.1430 64.5110
X 54.1108 32.1430 45.6110
X 54.1108 32.1430 46.3110
X 54.1108 32.1430 47.0110
X 54.1108 32.1430 47.7110
X 54.1108 32.1430 48.4110
X 54.1108 32.1430 49.1110
X 54.1108 32.1430 49.8110
X 54.1108 32.1430 50.5110
X 54.1108 32.1430 51.2110
X 54.1108 32.1430 57.5110
X 54.1108 32.1430 58.2110
X 54.1108 32.1430 58.9110
X 54.1108 32.1430 59.6110
X 54.1108 32.1430 60.3110
X 54.1108 32.1430 61.0110
X 54.1108 32.1430 61.7110
X 54.1108 32.1430 62.4110
X 54.1108 32.1430 63.1110
X 54.1108 32.1430 63.8110
X 54.1108 32.1430 64.5110
X 54.1108 32.1430 65.2110
X 54.8108 32.1430 45.6110
X 54.8108 32.1430 46.3110
X 54.8108 32.1430 47.0110
X 54.8108 32.1430 47.7110
X 54.8108 32.1430 48.4110
X 54.8108 32.1430 49.1110
X 54.8108 32.1430 49.8110
X 54.8108 32.1430 50.5110
X 54.8108 32.1430 58.9110
X 54.8108 32.1430 59.6110
X 54.8108 32.1430 60.3110
X 54.8108 32.1430 61.0110
X 54.8108 32.1430 61.7110
X 54.8108 32.1430 62.4110
X 54.8108 32.1430 63.1110
X 54.8108 32.1430 63.8110
X 54.8108 32.1430 64.5110
X 54.8108 32.1430 65.2110
X 55.5108 32.1430 44.9110
X 55.5108 32.1430 45.6110
X 55.5108 32.1430 46.3110
X 55.5108 32.1430 47.0110
X 55.5108 32.1430 47.7110
X 55.5108 32.1430 48.4110
X 55.5108 32.1430 49.1110
X 55.5108 32.1430 49.8110
X 55.5108 32.1430 50.5110
X 55.5108 32.1430 60.3110
X 55.5108 32.1430 61.0110
X 55.5108 32.1430 61.7110
X 55.5108 32.1430 62.4110
X 55.5108 32.1430 63.1110
X 55.5108 32.1430 63.8110
X 55.5108 32.1430 64.5110
X 55.5108 32.1430 65.2110
X 55.5108 32.1430 65.9110
X 56.2108 32.1430 44.9110
X 56.2108 32.1430 45.6110
X 56.2108 32.1430 46.3110
X 56.2108 32.1430 47.0110
X 56.2108 32.1430 47.7110
X 56.2108 32.1430 48.4110
X 56.2108 32.1430 49.1110
X 56.2108 32.1430 49.8110
X 56.2108 32.1430 50.5110
X 56.2108 32.1430 60.3110
X 56.2108 32.1430 61.0110
X 56.2108 32.1430 61.7110
X 56.2108 32.1430 62.4110
X 56.2108 32.1430 63.1110
X 56.2108 32.1430 63.8110
X 56.2108 32.1430 64.5110
X 56.2108 32.1430 65.2110
X 56.2108 32.1430 65.9110
X 56.9108 32.1430 44.9110
X 56.9108 32.1430 45.6110
X 56.9108 32.1430 46.3110
X 56.9108 32.1430 47.0110
X 56.9108 32.1430 47.7110
X 56.9108 32.1430 48.4110
X 56.9108 32.1430 49.1110
X 56.9108 32.1430 49.8110
X 56.9108 32.1430 50.5110
X 56.9108 32.1430 61.0110
X 56.9108 32.1430 61.7110
X 56.9108 32.1430 62.4110
X 56.9108 32.1430 63.1110
X 56.9108 32.1430 63.8110
X 56.9108 32.1430 64.5110
X 56.9108 32.1430 65.2110
X 56.9108 32.1430 65.9110
X 57.6108 32.1430 44.9110
X 57.6108 32.1430 45.6110
X 57.6108 32.1430 46.3110
X 57.6108 32.1430 47.0110
X 57.6108 32.1430 47.7110
X 57.6108 32.1430 48.4110
X 57.6108 32.1430 49.1110
X 57.6108 32.1430 49.8110
X 57.6108 32.1430 50.5110
X 57.6108 32.1430 61.0110
X 57.6108 32.1430 61.7110
X 57.6108 32.1430 62.4110
X 57.6108 32.1430 63.1110
X 57.6108 32.1430 63.8110
X 57.6108 32.1430 64.5110
X 57.6108 32.1430 65.2110
X 57.6108 32.1430 65.9110
X 58.3108 32.1430 44.9110
X 58.3108 32.1430 45.6110
X 58.3108 32.1430 46.3110
X 58.3108 32.1430 47.0110
X 58.3108 32.1430 47.7110
X 58.3108 32.1430 48.4110
X 58.3108 32.1430 49.1110
X 58.3108 32.1430 49.8110
X 58.3108 32.1430 61.0110
X 58.3108 32.1430 61.7110
X 58.3108 32.1430 62.4110
X 58.3108 32.1430 63.1110
X 58.3108 32.1430 63.8110
X 58.3108 32.1430 64.5110
X 58.3108 32.1430 65.2110
X 58.3108 32.1430 65.9110
X 59.0108 32.1430 44.9110
X 59.0108 32.1430 45.6110
X 59.0108 32.1430 46.3110
X 59.0108 32.1430 47.0110
X 59.0108 32.1430 47.7110
X 59.0108 32.1430 48.4110
X 59.0108 32.1430 49.1110
X 59.0108 32.1430 49.8110
X 59.0108 32.1430 61.0110
X 59.0108 32.1430 61.7110
X 59.0108 32.1430 62.4110
X 59.0108 32.1430 63.1110
X 59.0108 32.1430 63.8110
X 59.0108 32.1430 64.5110
X 59.0108 32.1430 65.2110
X 59.0108 32.1430 65.9110
X 59.7108 32.1430 44.9110
X 59.7108 32.1430 45.6110
X 59.7108 32.1430 46.3110
X 59.7108 32.1430 47.0110
X 59.7108 32.1430 47.7110
X 59.7108 32.1430 48.4110
X 59.7108 32.1430 49.1110
X 59.7108 32.1430 49.8110
X 59.7108 32.1430 60.3110
X 59.7108 32.1430 61.0110
X 59.7108 32.1430 61.7110
X 59.7108 32.1430 62.4110
X 59.7108 32.1430 63.1110
X 59.7108 32.1430 63.8110
X 59.7108 32.1430 64.5110
X 59.7108 32.1430 65.2110
X 59.7108 32.1430 65.9110
X 60.4108 32.1430 44.9110
X 60.4108 32.1430 45.6110
X 60.4108 32.1430 46.3110
X 60.4108 32.1430 47.0110
X 60.4108 32.1430 47.7110
X 60.4108 32.1430 48.4110
X 60.4108 32.1430 49.1110
X 60.4108 32.1430 49.8110
X 60.4108 32.1430 60.3110
X 60.4108 32.1430 61.0110
X 60.4108 32.1430 61.7110
X 60.4108 32.1430 62.4110
X 60.4108 32.1430 63.1110
X 60.4108 32.1430 63.8110
X 60.4108 32.1430 64.5110
X 60.4108 32.1430 65.2110
X 60.4108 32.1430 65.9110
X 61.1108 32.1430 44.9110
X 61.1108 32.1430 45.6110
X 61.1108 32.1430 46.3110
X 61.1108 32.1430 47.0110
X 61.1108 32.1430 47.7110
X 61.1108 32.1430 48.4110
X 61.1108 32.1430 49.1110
X 61.1108 32.1430 60.3110
X 61.1108 32.1430 61.0110
X 61.1108 32.1430 61.7110
X 61.1108 32.1430 62.4110
X 61.1108 32.1430 63.1110
X 61.1108 32.1430 63.8110
X 61.1108 32.1430 64.5110
X 61.1108 32.1430 65.2110
X 61.1108 32.1430 65.9110
X 61.8108 32.1430 44.9110
X 61.8108 32.1430 45.6110
X 61.8108 32.1430 46.3110
X 61.8108 32.1430 47.0110
X 61.8108 32.1430 47.7110
X 61.8108 32.1430 48.4110
X 61.8108 32.1430 49.1110
X 61.8108 32.1430 60.3110
X 61.8108 32.1430 61.0110
X 61.8108 32.1430 61.7110
X 61.8108 32.1430 62.4110
X 61.8108 32.1430 63.1110
X 61.8108 32.1430 63.8110
X 61.8108 32.1430 64.5110
X 61.8108 32.1430 65.2110
X 61.8108 32.1430 65.9110
X 62.5108 32.1430 44.9110
X 62.5108 32.1430 45.6110
X 62.5108 32.1430 46.3110
X 62.5108 32.1430 47.0110
X 62.5108 32.1430 47.7110
X 62.5108 32.1430 48.4110
X 62.5108 32.1430 49.1110
X 62.5108 32.1430 49.8110
X 62.5108 32.1430 59.6110
X 62.5108 32.1430 60.3110
X 62.5108 32.1430 61.0110
X 62.5108 32.1430 61.7110
X 62.5108 32.1430 62.4110
X 62.5108 32.1430 63.1110
X 62.5108 32.1430 63.8110
X 62.5108 32.1430 64.5110
X 62.5108 32.1430 65.2110
X 62.5108 32.1430 65.9110
X 63.2108 32.1430 44.9110
X 63.2108 32.1430 45.6110
X 63.2108 32.1430 46.3110
X 63.2108 32.1430 47.0110
X 63.2108 32.1430 47.7110
X 63.2108 32.1430 48.4110
X 63.2108 32.1430 49.1110
X 63.2108 32.1430 49.8110
X 63.2108 32.1430 58.9110
X 63.2108 32.1430 59.6110
X 63.2108 32.1430 60.3110
X 63.2108 32.1430 61.0110
X 63.2108 32.1430 61.7110
X 63.2108 32.1430 62.4110
X 63.2108 32.1430 63.1110
X 63.2108 32.1430 63.8110
X 63.2108 32.1430 64.5110
X 63.2108 32.1430 65.2110
X 63.9108 32.1430 44.9110
X 63.9108 32.1430 45.6110
X 63.9108 32.1430 46.3110
X 63.9108 32.1430 47.0110
X 63.9108 32.1430 47.7110
X 63.9108 32.1430 48.4110
X 63.9108 32.1430 49.1110
X 63.9108 32.1430 49.8110
X 63.9108 32.1430 50.5110
X 63.9108 32.1430 58.9110
X 63.9108 32.1430 59.6110
X 63.9108 32.1430 60.3110
X 63.9108 32.1430 61.0110
X 63.9108 32.1430 61.7110
X 63.9108 32.1430 62.4110
X 63.9108 32.1430 63.1110
X 63.9108 32.1430 63.8110
X 63.9108 32.1430 64.5110
X 63.9108 32.1430 65.2110
X 64.6108 32.1430 44.9110
X 64.6108 32.1430 45.6110
X 64.6108 32.1430 46.3110
X 64.6108 32.1430 47.0110
X 64.6108 32.1430 47.7110
X 64.6108 32.1430 48.4110
X 64.6108 32.1430 49.1110
X 64.6108 32.1430 49.8110
X 64.6108 32.1430 50.5110
X 64.6108 32.1430 51.2110
X 64.6108 32.1430 58.2110
X 64.6108 32.1430 58.9110
X 64.6108 32.1430 59.6110
X 64.6108 32.1430 60.3110
X 64.6108 32.1430 61.0110
X 64.6108 32.1430 61.7110
X 64.6108 32.1430 62.4110
X 64.6108 32.1430 63.1110
X 64.6108 32.1430 63.8110
X 64.6108 32.1430 64.5110
X 64.6108 32.1430 65.2110
X 65.3108 32.1430 45.6110
X 65.3108 32.1430 46.3110
X 65.3108 32.1430 47.0110
X 65.3108 32.1430 47.7110
X 65.3108 32.1430 48.4110
X 65.3108 32.1430 49.1110
X 65.3108 32.1430 49.8110
X 65.3108 32.1430 50.5110
X 65.3108 32.1430 51.2110
X 65.3108 32.1430 51.9110
X 65.3108 32.1430 52.6110
X 65.3108 32.1430 53.3110
X 65.3108 32.1430 54.0110
X 65.3108 32.1430 54.7110
X 65.3108 32.1430 56.1110
X 65.3108 32.1430 56.8110
X 65.3108 32.1430 57.5110
X 65.3108 32.1430 58.2110
X 65.3108 32.1430 58.9110
X 65.3108 32.1430 59.6110
X 65.3108 32.1430 60.3110
X 65.3108 32.1430 61.0110
X 65.3108 32.1430 61.7110
X 65.3108 32.1430 62.4110
X 65.3108 32.1430 63.1110
X 65.3108 32.1430 63.8110
X 65.3108 32.1430 64.5110
X 66.0108 32.1430 45.6110
X 66.0108 32.1430 46.3110
X 66.0108 32.1430 47.0110
X 66.0108 32.1430 47.7110
X 66.0108 32.1430 48.4110
X 66.0108 32.1430 49.1110
X 66.0108 32.1430 49.8110
X 66.0108 32.1430 50.5110
X 66.0108 32.1430 51.2110
X 66.0108 32.1430 51.9110
X 66.0108 32.1430 52.6110
X 66.0108 32.1430 53.3110
X 66.0108 32.1430 54.0110
X 66.0108 32.1430 54.7110
X 66.0108 32.1430 55.4110
X 66.0108 32.1430 56.1110
X 66.0108 32.1430 56.8110
X 66.0108 32.1430 57.5110
X 66.0108 32.1430 58.2110
X 66.0108 32.1430 58.9110
X 66.0108 32.1430 59.6110
X 66.0108 32.1430 60.3110
X 66.0108 32.1430 61.0110
X 66.0108 32.1430 61.7110
X 66.0108 32.1430 62.4110
X 66.0108 32.1430 63.1110
X 66.0108 32.1430 63.8110
X 66.7108 32.1430 46.3110
X 66.7108 32.1430 47.0110
X 66.7108 32.1430 47.7110
X 66.7108 32.1430 48.4110
X 66.7108 32.1430 49.1110
X 66.7108 32.1430 49.8110
X 66.7108 32.1430 50.5110
X 66.7108 32.1430 51.2110
X 66.7108 32.1430 51.9110
X 66.7108 32.1430 52.6110
X 66.7108 32.1430 53.3110
X 66.7108 32.1430 54.0110
X 66.7108 32.1430 54.7110
X 66.7108 32.1430 55.4110
X 66.7108 32.1430 56.1110
X 66.7108 32.1430 56.8110
X 66.7108 32.1430 57.5110
X 66.7108 32.1430 58.2110
X 66.7108 32.1430 58.9110
X 66.7108 32.1430 59.6110
X 66.7108 32.1430 60.3110
X 66.7108 32.1430 61.0110
X 66.7108 32.1430 61.7110
X 66.7108 32.1430 62.4110
X 66.7108 32.1430 63.1110
X 66.7108 32.1430 63.8110
X 67.4108 32.1430 47.0110
X 67.4108 32.1430 47.7110
X 67.4108 32.1430 48.4110
X 67.4108 32.1430 49.1110
X 67.4108 32.1430 49.8110
X 67.4108 32.1430 50.5110
X 67.4108 32.1430 51.2110
X 67.4108 32.1430 51.9110
X 67.4108 32.1430 52.6110
X 67.4108 32.1430 53.3110
X 67.4108 32.1430 54.0110
X 67.4108 32.1430 54.7110
X 67.4108 32.1430 55.4110
X 67.4108 32.1430 56.1110
X 67.4108 32.1430 56.8110
X 67.4108 32.1430 57.5110
X 67.4108 32.1430 58.2110
X 67.4108 32.1430 58.9110
X 67.4108 32.1430 59.6110
X 67.4108 32.1430 60.3110
X 67.4108 32.1430 61.0110
X 67.4108 32.1430 61.7110
X 67.4108 32.1430 62.4110
X 67.4108 32.1430 63.1110
X 68.1108 32.1430 47.7110
X 68.1108 32.1430 48.4110
X 68.1108 32.1430 49.1110
X 68.1108 32.1430 49.8110
X 68.1108 32.1430 50.5110
X 68.1108 32.1430 51.2110
X 68.1108 32.1430 51.9110
X 68.1108 32.1430 52.6110
X 68.1108 32.1430 53.3110
X 68.1108 32.1430 54.0110
X 68.1108 32.1430 54.7110
X 68.1108 32.1430 55.4110
X 68.1108 32.1430 56.1110
X 68.1108 32.1430 56.8110
X 68.1108 32.1430 57.5110
X 68.1108 32.1430 58.2110
X 68.1108 32.1430 58.9110
X 68.1108 32.1430 59.6110
X 68.1108 32.1430 60.3110
X 68.1108 32.1430 61.0110
X 68.1108 32.1430 61.7110
X 68.8108 32.1430 48.4110
X 68.8108 32.1430 49.1110
X 68.8108 32.1430 49.8110
X 68.8108 32.1430 50.5110
X 68.8108 32.1430 51.2110
X 68.8108 32.1430 51.9110
X 68.8108 32.1430 52.6110
X 68.8108 32.1430 53.3110
X 68.8108 32.1430 54.0110
X 68.8108 32.1430 54.7110
X 68.8108 32.1430 55.4110
X 68.8108 32.1430 56.1110
X 68.8108 32.1430 56.8110
X 68.8108 32.1430 57.5110
X 68.8108 32.1430 58.2110
X 68.8108 32.1430 58.9110
X 68.8108 32.1430 59.6110
X 68.8108 32.1430 60.3110
X 68.8108 32.1430 61.0110
X 69.5108 32.1430 49.8110
X 69.5108 32.1430 50.5110
X 69.5108 32.1430 51.2110
X 69.5108 32.1430 51.9110
X 69.5108 32.1430 52.6110
X 69.5108 32.1430 53.3110
X 69.5108 32.1430 54.0110
X 69.5108 32.1430 54.7110
X 69.5108 32.1430 55.4110
X 69.5108 32.1430 56.1110
X 69.5108 32.1430 56.8110
X 69.5108 32.1430 57.5110
X 69.5108 32.1430 58.2110
X 69.5108 32.1430 58.9110
X 69.5108 32.1430 59.6110
X 70.2108 32.1430 51.2110
X 70.2108 32.1430 51.9110
X 70.2108 32.1430 52.6110
X 70.2108 32.1430 53.3110
X 70.2108 32.1430 54.0110
X 70.2108 32.1430 54.7110
X 70.2108 32.1430 55.4110
X 70.2108 32.1430 56.1110
X 70.2108 32.1430 56.8110
X 70.2108 32.1430 57.5110
X 70.2108 32.1430 58.2110
X 46.4108 32.8430 54.0110
X 46.4108 32.8430 54.7110
X 46.4108 32.8430 55.4110
X 46.4108 32.8430 56.1110
X 47.1108 32.8430 51.9110
X 47.1108 32.8430 52.6110
X 47.1108 32.8430 53.3110
X 47.1108 32.8430 54.0110
X 47.1108 32.8430 54.7110
X 47.1108 32.8430 55.4110
X 47.1108 32.8430 56.1110
X 47.1108 32.8430 56.8110
X 47.1108 32.8430 57.5110
X 47.1108 32.8430 58.2110
X 47.8108 32.8430 50.5110
X 47.8108 32.8430 51.2110
X 47.8108 32.8430 51.9110
X 47.8108 32.8430 52.6110
X 47.8108 32.8430 53.3110
X 47.8108 32.8430 54.0110
X 47.8108 32.8430 54.7110
X 47.8108 32.8430 55.4110
X 47.8108 32.8430 56.1110
X 47.8108 32.8430 56.8110
X 47.8108 32.8430 57.5110
X 47.8108 32.8430 58.2110
X 47.8108 32.8430 58.9110
X 47.8108 32.8430 59.6110
X 48.5108 32.8430 49.8110
X 48.5108 32.8430 50.5110
X 48.5108 32.8430 51.2110
X 48.5108 32.8430 51.9110
X 48.5108 32.8430 52.6110
X 48.5108 32.8430 53.3110
X 48.5108 32.8430 54.0110
X 48.5108 32.8430 54.7110
X 48.5108 32.8430 55.4110
X 48.5108 32.8430 56.1110
X 48.5108 32.8430 56.8110
X 48.5108 32.8430 57.5110
X 48.5108 32.8430 58.2110
X 48.5108 32.8430 58.9110
X 48.5108 32.8430 59.6110
X 48.5108 32.8430 60.3110
X 49.2108 32.8430 49.1110
X 49.2108 32.8430 49.8110
X 49.2108 32.8430 50.5110
X 49.2108 32.8430 51.2110
X 49.2108 32.8430 51.9110
X 49.2108 32.8430 52.6110
X 49.2108 32.8430 53.3110
X 49.2108 32.8430 54.0110
X 49.2108 32.8430 54.7110
X 49.2108 32.8430 55.4110
X 49.2108 32.8430 56.1110
X 49.2108 32.8430 56.8110
X 49.2108 32.8430 57.5110
X 49.2108 32.8430 58.2110
X 49.2108 32.8430 58.9110
X 49.2108 32.8430 59.6110
X 49.2108 32.8430 60.3110
X 49.2108 32.8430 61.0110
X 49.9108 32.8430 48.4110
X 49.9108 32.8430 49.1110
X 49.9108 32.8430 49.8110
X 49.9108 32.8430 50.5110
X 49.9108 32.8430 51.2110
X 49.9108 32.8430 51.9110
X 49.9108 32.8430 52.6110
X 49.9108 32.8430 53.3110
X 49.9108 32.8430 54.0110
X 49.9108 32.8430 54.7110
X 49.9108 32.8430 55.4110
X 49.9108 32.8430 56.1110
X 49.9108 32.8430 56.8110
X 49.9108 32.8430 57.5110
X 49.9108 32.8430 58.2110
X 49.9108 32.8430 58.9110
X 49.9108 32.8430 59.6110
X 49.9108 32.8430 60.3110
X 49.9108 32.8430 61.0110
X 49.9108 32.8430 61.7110
X 50.6108 32.8430 47.7110
X 50.6108 32.8430 48.4110
X 50.6108 32.8430 49.1110
X 50.6108 32.8430 49.8110
X 50.6108 32.8430 50.5110
X 50.6108 32.8430 51.2110
X 50.6108 32.8430 51.9110
X 50.6108 32.8430 52.6110
X 50.6108 32.8430 53.3110
X 50.6108 32.8430 54.0110
X 50.6108 32.8430 54.7110
X 50.6108 32.8430 55.4110
X 50.6108 32.8430 56.1110
X 50.6108 32.8430 56.8110
X 50.6108 32.8430 57.5110
X 50.6108 32.8430 58.2110
X 50.6108 32.8430 58.9110
X 50.6108 32.8430 59.6110
X 50.6108 32.8430 60.3110
X 50.6108 32.8430 61.0110
X 50.6108 32.8430 61.7110
X 50.6108 32.8430 62.4110
X 51.3108 32.8430 47.0110
X 51.3108 32.8430 47.7110
X 51.3108 32.8430 48.4110
X 51.3108 32.8430 49.1110
X 51.3108 32.8430 49.8110
X 51.3108 32.8430 50.5110
X 51.3108 32.8430 51.2110
X 51.3108 32.8430 51.9110
X 51.3108 32.8430 52.6110
X 51.3108 32.8430 53.3110
X 51.3108 32.8430 54.0110
X 51.3108 32.8430 54.7110
X 51.3108 32.8430 55.4110
X 51.3108 32.8430 56.1110
X 51.3108 32.8430 56.8110
X 51.3108 32.8430 57.5110
X 51.3108 32.8430 58.2110
X 51.3108 32.8430 58.9110
X 51.3108 32.8430 59.6110
X 51.3108 32.8430 60.3110
X 51.3108 32.8430 61.0110
X 51.3108 32.8430 61.7110
X 51.3108 32.8430 62.4110
X 51.3108 32.8430 63.1110
X 52.0108 32.8430 47.0110
X 52.0108 32.8430 47.7110
X 52.0108 32.8430 48.4110
X 52.0108 32.8430 49.1110
X 52.0108 32.8430 49.8110
X 52.0108 32.8430 50.5110
X 52.0108 32.8430 51.2110
X 52.0108 32.8430 51.9110
X 52.0108 32.8430 52.6110
X 52.0108 32.8430 53.3110
X 52.0108 32.8430 54.0110
X 52.0108 32.8430 54.7110
X 52.0108 32.8430 55.4110
X 52.0108 32.8430 56.1110
X 52.0108 32.8430 56.8110
X 52.0108 32.8430 57.5110
X 52.0108 32.8430 58.2110
X 52.0108 32.8430 58.9110
X 52.0108 32.8430 59.6110
X 52.0108 32.8430 60.3110
X 52.0108 32.8430 61.0110
X 52.0108 32.8430 61.7110
X 52.0108 32.8430 62.4110
X 52.0108 32.8430 63.1110
X 52.0108 32.8430 63.8110
X 52.7108 32.8430 46.3110
X 52.7108 32.8430 47.0110
X 52.7108 32.8430 47.7110
X 52.7108 32.8430 48.4110
X 52.7108 32.8430 49.1110
X 52.7108 32.8430 49.8110
X 52.7108 32.8430 50.5110
X 52.7108 32.8430 51.2110
X 52.7108 32.8430 51.9110
X 52.7108 32.8430 52.6110
X 52.7108 32.8430 56.1110
X 52.7108 32.8430 56.8110
X 52.7108 32.8430 57.5110
X 52.7108 32.8430 58.2110
X 52.7108 32.8430 58.9110
X 52.7108 32.8430 59.6110
X 52.7108 32.8430 60.3110
X 52.7108 32.8430 61.0110
X 52.7108 32.8430 61.7110
X 52.7108 32.8430 62.4110
X 52.7108 32.8430 63.1110
X 52.7108 32.8430 63.8110
X 52.7108 32.8430 64.5110
X 53.4108 32.8430 45.6110
X 53.4108 32.8430 46.3110
X 53.4108 32.8430 47.0110
X 53.4108 32.8430 47.7110
X 53.4108 32.8430 48.4110
X 53.4108 32.8430 49.1110
X 53.4108 32.8430 49.8110
X 53.4108 32.8430 50.5110
X 53.4108 32.8430 51.2110
X 53.4108 32.8430 51.9110
X 53.4108 32.8430 57.5110
X 53.4108 32.8430 58.2110
X 53.4108 32.8430 58.9110
X 53.4108 32.8430 59.6110
X 53.4108 32.8430 60.3110
X 53.4108 32.8430 61.0110
X 53.4108 32.8430 61.7110
X 53.4108 32.8430 62.4110
X 53.4108 32.8430 63.1110
X 53.4108 32.8430 63.8110
X 53.4108 32.8430 64.5110
X 54.1108 32.8430 45.6110
X 54.1108 32.8430 46.3110
X 54.1108 32.8430 47.0110
X 54.1108 32.8430 47.7110
X 54.1108 32.8430 48.4110
X 54.1108 32.8430 49.1110
X 54.1108 32.8430 49.8110
X 54.1108 32.8430 50.5110
X 54.1108 32.8430 51.2110
X 54.1108 32.8430 58.2110
X 54.1108 32.8430 58.9110
X 54.1108 32.8430 59.6110
X 54.1108 32.8430 60.3110
X 54.1108 32.8430 61.0110
X 54.1108 32.8430 61.7110
X 54.1108 32.8430 62.4110
X 54.1108 32.8430 63.1110
X 54.1108 32.8430 63.8110
X 54.1108 32.8430 64.5110
X 54.1108 32.8430 65.2110
X 54.8108 32.8430 44.9110
X 54.8108 32.8430 45.6110
X 54.8108 32.8430 46.3110
X 54.8108 32.8430 47.0110
X 54.8108 32.8430 47.7110
X 54.8108 32.8430 48.4110
X 54.8108 32.8430 49.1110
X 54.8108 32.8430 49.8110
X 54.8108 32.8430 50.5110
X 54.8108 32.8430 59.6110
X 54.8108 32.8430 60.3110
X 54.8108 32.8430 61.0110
X 54.8108 32.8430 61.7110
X 54.8108 32.8430 62.4110
X 54.8108 32.8430 63.1110
X 54.8108 32.8430 63.8110
X 54.8108 32.8430 64.5110
X 54.8108 32.8430 65.2110
X 55.5108 32.8430 44.9110
X 55.5108 32.8430 45.6110
X 55.5108 32.8430 46.3110
X 55.5108 32.8430 47.0110
X 55.5108 32.8430 47.7110
X 55.5108 32.8430 48.4110
X 55.5108 32.8430 49.1110
X 55.5108 32.8430 49.8110
X 55.5108 32.8430 50.5110
X 55.5108 32.8430 60.3110
X 55.5108 32.8430 61.0110
X 55.5108 32.8430 61.7110
X 55.5108 32.8430 62.4110
X 55.5108 32.8430 63.1110
X 55.5108 32.8430 63.8110
X 55.5108 32.8430 64.5110
X 55.5108 32.8430 65.2110
X 55.5108 32.8430 65.9110
X 56.2108 32.8430 44.9110
X 56.2108 32.8430 45.6110
X 56.2108 32.8430 46.3110
X 56.2108 32.8430 47.0110
X 56.2108 32.8430 47.7110
X 56.2108 32.8430 48.4110
X 56.2108 32.8430 49.1110
X 56.2108 32.8430 49.8110
X 56.2108 32.8430 50.5110
X 56.2108 32.8430 61.0110
X 56.2108 32.8430 61.7110
X 56.2108 32.8430 62.4110
X 56.2108 32.8430 63.1110
X 56.2108 32.8430 63.8110
X 56.2108 32.8430 64.5110
X 56.2108 32.8430 65.2110
X 56.2108 32.8430 65.9110
X 56.9108 32.8430 44.9110
X 56.9108 32.8430 45.6110
X 56.9108 32.8430 46.3110
X 56.9108 32.8430 47.0110
X 56.9108 32.8430 47.7110
X 56.9108 32.8430 48.4110
X 56.9108 32.8430 49.1110
X 56.9108 32.8430 49.8110
X 56.9108 32.8430 61.0110
X 56.9108 32.8430 61.7110
X 56.9108 32.8430 62.4110
X 56.9108 32.8430 63.1110
X 56.9108 32.8430 63.8110
X 56.9108 32.8430 64.5110
X 56.9108 32.8430 65.2110
X 56.9108 32.8430 65.9110
X 57.6108 32.8430 44.9110
X 57.6108 32.8430 45.6110
X 57.6108 32.8430 46.3110
X 57.6108 32.8430 47.0110
X 57.6108 32.8430 47.7110
X 57.6108 32.8430 48.4110
X 57.6108 32.8430 49.1110
X 57.6108 32.8430 49.8110
X 57.6108 32.8430 61.0110
X 57.6108 32.8430 61.7110
X 57.6108 32.8430 62.4110
X 57.6108 32.8430 63.1110
X 57.6108 32.8430 63.8110
X 57.6108 32.8430 64.5110
X 57.6108 32.8430 65.2110
X 57.6108 32.8430 65.9110
X 58.3108 32.8430 44.9110
X 58.3108 32.8430 45.6110
X 58.3108 32.8430 46.3110
X 58.3108 32.8430 47.0110
X 58.3108 32.8430 47.7110
X 58.3108 32.8430 48.4110
X 58.3108 32.8430 49.1110
X 58.3108 32.8430 49.8110
X 58.3108 32.8430 61.0110
X 58.3108 32.8430 61.7110
X 58.3108 32.8430 62.4110
X 58.3108 32.8430 63.1110
X 58.3108 32.8430 63.8110
X 58.3108 32.8430 64.5110
X 58.3108 32.8430 65.2110
X 58.3108 32.8430 65.9110
X 59.0108 32.8430 44.2110
X 59.0108 32.8430 44.9110
X 59.0108 32.8430 45.6110
X 59.0108 32.8430 46.3110
X 59.0108 32.8430 47.0110
X 59.0108 32.8430 47.7110
X 59.0108 32.8430 48.4110
X 59.0108 32.8430 49.1110
X 59.0108 32.8430 49.8110
X 59.0108 32.8430 61.0110
X 59.0108 32.8430 61.7110
X 59.0108 32.8430 62.4110
X 59.0108 32.8430 63.1110
X 59.0108 32.8430 63.8110
X 59.0108 32.8430 64.5110
X 59.0108 32.8430 65.2110
X 59.0108 32.8430 65.9110
X 59.7108 32.8430 44.2110
X 59.7108 32.8430 44.9110
X 59.7108 32.8430 45.6110
X 59.7108 32.8430 46.3110
X 59.7108 32.8430 47.0110
X 59.7108 32.8430 47.7110
X 59.7108 32.8430 48.4110
X 59.7108 32.8430 49.1110
X 59.7108 32.8430 49.8110
X 59.7108 32.8430 61.0110
X 59.7108 32.8430 61.7110
X 59.7108 32.8430 62.4110
X 59.7108 32.8430 63.1110
X 59.7108 32.8430 63.8110
X 59.7108 32.8430 64.5110
X 59.7108 32.8430 65.2110
X 59.7108 32.8430 65.9110
X 60.4108 32.8430 44.2110
X 60.4108 32.8430 44.9110
X 60.4108 32.8430 45.6110
X 60.4108 32.8430 46.3110
X 60.4108 32.8430 47.0110
X 60.4108 32.8430 47.7110
X 60.4108 32.8430 48.4110
X 60.4108 32.8430 49.1110
X 60.4108 32.8430 49.8110
X 60.4108 32.8430 61.0110
X 60.4108 32.8430 61.7110
X 60.4108 32.8430 62.4110
X 60.4108 32.8430 63.1110
X 60.4108 32.8430 63.8110
X 60.4108 32.8430 64.5110
X 60.4108 32.8430 65.2110
X 60.4108 32.8430 65.9110
X 61.1108 32.8430 44.9110
X 61.1108 32.8430 45.6110
X 61.1108 32.8430 46.3110
X 61.1108 32.8430 47.0110
X 61.1108 32.8430 47.7110
X 61.1108 32.8430 48.4110
X 61.1108 32.8430 49.1110
X 61.1108 32.8430 49.8110
X 61.1108 32.8430 61.0110
X 61.1108 32.8430 61.7110
X 61.1108 32.8430 62.4110
X 61.1108 32.8430 63.1110
X 61.1108 32.8430 63.8110
X 61.1108 32.8430 64.5110
X 61.1108 32.8430 65.2110
X 61.1108 32.8430 65.9110
X 61.8108 32.8430 44.9110
X 61.8108 32.8430 45.6110
X 61.8108 32.8430 46.3110
X 61.8108 32.8430 47.0110
X 61.8108 32.8430 47.7110
X 61.8108 32.8430 48.4110
X 61.8108 32.8430 49.1110
X 61.8108 32.8430 49.8110
X 61.8108 32.8430 60.3110
X 61.8108 32.8430 61.0110
X 61.8108 32.8430 61.7110
X 61.8108 32.8430 62.4110
X 61.8108 32.8430 63.1110
X 61.8108 32.8430 63.8110
X 61.8108 32.8430 64.5110
X 61.8108 32.8430 65.2110
X 61.8108 32.8430 65.9110
X 62.5108 32.8430 44.9110
X 62.5108 32.8430 45.6110
X 62.5108 32.8430 46.3110
X 62.5108 32.8430 47.0110
X 62.5108 32.8430 47.7110
X 62.5108 32.8430 48.4110
X 62.5108 32.8430 49.1110
X 62.5108 32.8430 49.8110
X 62.5108 32.8430 60.3110
X 62.5108 32.8430 61.0110
X 62.5108 32.8430 61.7110
X 62.5108 32.8430 62.4110
X 62.5108 32.8430 63.1110
X 62.5108 32.8430 63.8110
X 62.5108 32.8430 64.5110
X 62.5108 32.8430 65.2110
X 62.5108 32.8430 65.9110
X 63.2108 32.8430 44.9110
X 63.2108 32.8430 45.6110
X 63.2108 32.8430 46.3110
X 63.2108 32.8430 47.0110
X 63.2108 32.8430 47.7110
X 63.2108 32.8430 48.4110
X 63.2108 32.8430 49.1110
X 63.2108 32.8430 49.8110
X 63.2108 32.8430 58.9110
X 63.2108 32.8430 59.6110
X 63.2108 32.8430 60.3110
X 63.2108 32.8430 61.0110
X 63.2108 32.8430 61.7110
X 63.2108 32.8430 62.4110
X 63.2108 32.8430 63.1110
X 63.2108 32.8430 63.8110
X 63.2108 32.8430 64.5110
X 63.2108 32.8430 65.2110
X 63.2108 32.8430 65.9110
X 63.9108 32.8430 44.9110
X 63.9108 32.8430 45.6110
X 63.9108 32.8430 46.3110
X 63.9108 32.8430 47.0110
X 63.9108 32.8430 47.7110
X 63.9108 32.8430 48.4110
X 63.9108 32.8430 49.1110
X 63.9108 32.8430 49.8110
X 63.9108 32.8430 50.5110
X 63.9108 32.8430 58.2110
X 63.9108 32.8430 58.9110
X 63.9108 32.8430 59.6110
X 63.9108 32.8430 60.3110
X 63.9108 32.8430 61.0110
X 63.9108 32.8430 61.7110
X 63.9108 32.8430 62.4110
X 63.9108 32.8430 63.1110
X 63.9108 32.8430 63.8110
X 63.9108 32.8430 64.5110
X 63.9108 32.8430 65.2110
X 64.6108 32.8430 45.6110
X 64.6108 32.8430 46.3110
X 64.6108 32.8430 47.0110
X 64.6108 32.8430 47.7110
X 64.6108 32.8430 48.4110
X 64.6108 32.8430 49.1110
X 64.6108 32.8430 49.8110
X 64.6108 32.8430 50.5110
X 64.6108 32.8430 51.2110
X 64.6108 32.8430 57.5110
X 64.6108 32.8430 58.2110
X 64.6108 32.8430 58.9110
X 64.6108 32.8430 59.6110
X 64.6108 32.8430 60.3110
X 64.6108 32.8430 61.0110
X 64.6108 32.8430 61.7110
X 64.6108 32.8430 62.4110
X 64.6108 32.8430 63.1110
X 64.6108 32.8430 63.8110
X 64.6108 32.8430 64.5110
X 64.6108 32.8430 65.2110
X 65.3108 32.8430 45.6110
X 65.3108 32.8430 46.3110
X 65.3108 32.8430 47.0110
X 65.3108 32.8430 47.7110
X 65.3108 32.8430 48.4110
X 65.3108 32.8430 49.1110
X 65.3108 32.8430 49.8110
X 65.3108 32.8430 50.5110
X 65.3108 32.8430 51.2110
X 65.3108 32.8430 51.9110
X 65.3108 32.8430 52.6110
X 65.3108 32.8430 53.3110
X 65.3108 32.8430 54.0110
X 65.3108 32.8430 54.7110
X 65.3108 32.8430 55.4110
X 65.3108 32.8430 56.1110
X 65.3108 32.8430 56.8110
X 65.3108 32.8430 57.5110
X 65.3108 32.8430 58.2110
X 65.3108 32.8430 58.9110
X 65.3108 32.8430 59.6110
X 65.3108 32.8430 60.3110
X 65.3108 32.8430 61.0110
X 65.3108 32.8430 61.7110
X 65.3108 32.8430 62.4110
X 65.3108 32.8430 63.1110
X 65.3108 32.8430 63.8110
X 65.3108 32.8430 64.5110
X 66.0108 32.8430 45.6110
X 66.0108 32.8430 46.3110
X 66.0108 32.8430 47.0110
X 66.0108 32.8430 47.7110
X 66.0108 32.8430 48.4110
X 66.0108 32.8430 49.1110
X 66.0108 32.8430 49.8110
X 66.0108 32.8430 50.5110
X 66.0108 32.8430 51.2110
X 66.0108 32.8430 51.9110
X 66.0108 32.8430 52.6110
X 66.0108 32.8430 53.3110
X 66.0108 32.8430 54.0110
X 66.0108 32.8430 54.7110
X 66.0108 32.8430 55.4110
X 66.0108 32.8430 56.1110
X 66.0108 32.8430 56.8110
X 66.0108 32.8430 57.5110
X 66.0108 32.8430 58.2110
X 66.0108 32.8430 58.9110
X 66.0108 32.8430 59.6110
X 66.0108 32.8430 60.3110
X 66.0108 32.8430 61.0110
X 66.0108 32.8430 61.7110
X 66.0108 32.8430 62.4110
X 66.0108 32.8430 63.1110
X 66.0108 32.8430 63.8110
X 66.0108 32.8430 64.5110
X 66.7108 32.8430 46.3110
X 66.7108 32.8430 47.0110
X 66.7108 32.8430 47.7110
X 66.7108 32.8430 48.4110
X 66.7108 32.8430 49.1110
X 66.7108 32.8430 49.8110
X 66.7108 32.8430 50.5110
X 66.7108 32.8430 51.2110
X 66.7108 32.8430 51.9110
X 66.7108 32.8430 52.6110
X 66.7108 32.8430 53.3110
X 66.7108 32.8430 54.0110
X 66.7108 32.8430 54.7110
X 66.7108 32.8430 55.4110
X 66.7108 32.8430 56.1110
X 66.7108 32.8430 56.8110
X 66.7108 32.8430 57.5110
X 66.7108 32.8430 58.2110
X 66.7108 32.8430 58.9110
X 66.7108 32.8430 59.6110
X 66.7108 32.8430 60.3110
X 66.7108 32.8430 61.0110
X 66.7108 32.8430 61.7110
X 66.7108 32.8430 62.4110
X 66.7108 32.8430 63.1110
X 66.7108 32.8430 63.8110
X 67.4108 32.8430 47.0110
X 67.4108 32.8430 47.7110
X 67.4108 32.8430 48.4110
X 67.4108 32.8430 49.1110
X 67.4108 32.8430 49.8110
X 67.4108 32.8430 50.5110
X 67.4108 32.8430 51.2110
X 67.4108 32.8430 51.9110
X 67.4108 32.8430 52.6110
X 67.4108 32.8430 53.3110
X 67.4108 32.8430 54.0110
X 67.4108 32.8430 54.7110
X 67.4108 32.8430 55.4110
X 67.4108 32.8430 56.1110
X 67.4108 32.8430 56.8110
X 67.4108 32.8430 57.5110
X 67.4108 32.8430 58.2110
X 67.4108 32.8430 58.9110
X 67.4108 32.8430 59.6110
X 67.4108 32.8430 60.3110
X 67.4108 32.8430 61.0110
X 67.4108 32.8430 61.7110
X 67.4108 32.8430 62.4110
X 67.4108 32.8430 63.1110
X 68.1108 32.8430 47.7110
X 68.1108 32.8430 48.4110
X 68.1108 32.8430 49.1110
X 68.1108 32.8430 49.8110
X 68.1108 32.8430 50.5110
X 68.1108 32.8430 51.2110
X 68.1108 32.8430 51.9110
X 68.1108 32.8430 52.6110
X 68.1108 32.8430 53.3110
X 68.1108 32.8430 54.0110
X 68.1108 32.8430 54.7110
X 68.1108 32.8430 55.4110
X 68.1108 32.8430 56.1110
X 68.1108 32.8430 56.8110
X 68.1108 32.8430 57.5110
X 68.1108 32.8430 58.2110
X 68.1108 32.8430 58.9110
X 68.1108 32.8430 59.6110
X 68.1108 32.8430 60.3110
X 68.1108 32.8430 61.0110
X 68.1108 32.8430 61.7110
X 68.8108 32.8430 48.4110
X 68.8108 32.8430 49.1110
X 68.8108 32.8430 49.8110
X 68.8108 32.8430 50.5110
X 68.8108 32.8430 51.2110
X 68.8108 32.8430 51.9110
X 68.8108 32.8430 52.6110
X 68.8108 32.8430 53.3110
X 68.8108 32.8430 54.0110
X 68.8108 32.8430 54.7110
X 68.8108 32.8430 55.4110
X 68.8108 32.8430 56.1110
X 68.8108 32.8430 56.8110
X 68.8108 32.8430 57.5110
X 68.8108 32.8430 58.2110
X 68.8108 32.8430 58.9110
X 68.8108 32.8430 59.6110
X 68.8108 32.8430 60.3110
X 68.8108 32.8430 61.0110
X 69.5108 32.8430 49.8110
X 69.5108 32.8430 50.5110
X 69.5108 32.8430 51.2110
X 69.5108 32.8430 51.9110
X 69.5108 32.8430 52.6110
X 69.5108 32.8430 53.3110
X 69.5108 32.8430 54.0110
X 69.5108 32.8430 54.7110
X 69.5108 32.8430 55.4110
X 69.5108 32.8430 56.1110
X 69.5108 32.8430 56.8110
X 69.5108 32.8430 57.5110
X 69.5108 32.8430 58.2110
X 69.5108 32.8430 58.9110
X 69.5108 32.8430 59.6110
X 70.2108 32.8430 51.2110
X 70.2108 32.8430 51.9110
X 70.2108 32.8430 52.6110
X 70.2108 32.8430 53.3110
X 70.2108 32.8430 54.0110
X 70.2108 32.8430 54.7110
X 70.2108 32.8430 55.4110
X 70.2108 32.8430 56.1110
X 70.2108 32.8430 56.8110
X 70.2108 32.8430 57.5110
X 70.2108 32.8430 58.2110
X 47.1108 33.5430 51.9110
X 47.1108 33.5430 52.6110
X 47.1108 33.5430 53.3110
X 47.1108 33.5430 54.0110
X 47.1108 33.5430 54.7110
X 47.1108 33.5430 55.4110
X 47.1108 33.5430 56.1110
X 47.1108 33.5430 56.8110
X 47.1108 33.5430 57.5110
X 47.1108 33.5430 58.2110
X 47.8108 33.5430 50.5110
X 47.8108 33.5430 51.2110
X 47.8108 33.5430 51.9110
X 47.8108 33.5430 52.6110
X 47.8108 33.5430 53.3110
X 47.8108 33.5430 54.0110
X 47.8108 33.5430 54.7110
X 47.8108 33.5430 55.4110
X 47.8108 33.5430 56.1110
X 47.8108 33.5430 56.8110
X 47.8108 33.5430 57.5110
X 47.8108 33.5430 58.2110
X 47.8108 33.5430 58.9110
X 47.8108 33.5430 59.6110
X 48.5108 33.5430 49.8110
X 48.5108 33.5430 50.5110
X 48.5108 33.5430 51.2110
X 48.5108 33.5430 51.9110
X 48.5108 33.5430 52.6110
X 48.5108 33.5430 53.3110
X 48.5108 33.5430 54.0110
X 48.5108 33.5430 54.7110
X 48.5108 33.5430 55.4110
X 48.5108 33.5430 56.1110
X 48.5108 33.5430 56.8110
X 48.5108 33.5430 57.5110
X 48.5108 33.5430 58.2110
X 48.5108 33.5430 58.9110
X 48.5108 33.5430 59.6110
X 48.5108 33.5430 60.3110
X 49.2108 33.5430 49.1110
X 49.2108 33.5430 49.8110
X 49.2108 33.5430 50.5110
X 49.2108 33.5430 51.2110
X 49.2108 33.5430 51.9110
X 49.2108 33.5430 52.6110
X 49.2108 33.5430 53.3110
X 49.2108 33.5430 54.0110
X 49.2108 33.5430 54.7110
X 49.2108 33.5430 55.4110
X 49.2108 33.5430 56.1110
X 49.2108 33.5430 56.8110
X 49.2108 33.5430 57.5110
X 49.2108 33.5430 58.2110
X 49.2108 33.5430 58.9110
X 49.2108 33.5430 59.6110
X 49.2108 33.5430 60.3110
X 49.2108 33.5430 61.0110
X 49.9108 33.5430 48.4110
X 49.9108 33.5430 49.1110
X 49.9108 33.5430 49.8110
X 49.9108 33.5430 50.5110
X 49.9108 33.5430 51.2110
X 49.9108 33.5430 51.9110
X 49.9108 33.5430 52.6110
X 49.9108 33.5430 53.3110
X 49.9108 33.5430 54.0110
X 49.9108 33.5430 54.7110
X 49.9108 33.5430 55.4110
X 49.9108 33.5430 56.1110
X 49.9108 33.5430 56.8110
X 49.9108 33.5430 57.5110
X 49.9108 33.5430 58.2110
X 49.9108 33.5430 58.9110
X 49.9108 33.5430 59.6110
X 49.9108 33.5430 60.3110
X 49.9108 33.5430 61.0110
X 49.9108 33.5430 61.7110
X 50.6108 33.5430 47.7110
X 50.6108 33.5430 48.4110
X 50.6108 33.5430 49.1110
X 50.6108 33.5430 49.8110
X 50.6108 33.5430 50.5110
X 50.6108 33.5430 51.2110
X 50.6108 33.5430 51.9110
X 50.6108 33.5430 52.6110
X 50.6108 33.5430 53.3110
X 50.6108 33.5430 54.0110
X 50.6108 33.5430 54.7110
X 50.6108 33.5430 55.4110
X 50.6108 33.5430 56.1110
X 50.6108 33.5430 56.8110
X 50.6108 33.5430 57.5110
X 50.6108 33.5430 58.2110
X 50.6108 33.5430 58.9110
X 50.6108 33.5430 59.6110
X 50.6108 33.5430 60.3110
X 50.6108 33.5430 61.0110
X 50.6108 33.5430 61.7110
X 50.6108 33.5430 62.4110
X 51.3108 33.5430 47.0110
X 51.3108 33.5430 47.7110
X 51.3108 33.5430 48.4110
X 51.3108 33.5430 49.1110
X 51.3108 33.5430 49.8110
X 51.3108 33.5430 50.5110
X 51.3108 33.5430 51.2110
X 51.3108 33.5430 51.9110
X 51.3108 33.5430 52.6110
X 51.3108 33.5430 53.3110
X 51.3108 33.5430 54.0110
X 51.3108 33.5430 54.7110
X 51.3108 33.5430 55.4110
X 51.3108 33.5430 56.1110
X 51.3108 33.5430 56.8110
X 51.3108 33.5430 57.5110
X 51.3108 33.5430 58.2110
X 51.3108 33.5430 58.9110
X 51.3108 33.5430 59.6110
X 51.3108 33.5430 60.3110
X 51.3108 33.5430 61.0110
X 51.3108 33.5430 61.7110
X 51.3108 33.5430 62.4110
X 51.3108 33.5430 63.1110
X 52.0108 33.5430 46.3110
X 52.0108 33.5430 47.0110
X 52.0108 33.5430 47.7110
X 52.0108 33.5430 48.4110
X 52.0108 33.5430 49.1110
X 52.0108 33.5430 49.8110
X 52.0108 33.5430 50.5110
X 52.0108 33.5430 51.2110
X 52.0108 33.5430 51.9110
X 52.0108 33.5430 52.6110
X 52.0108 33.5430 53.3110
X 52.0108 33.5430 54.0110
X 52.0108 33.5430 54.7110
X 52.0108 33.5430 55.4110
X 52.0108 33.5430 56.1110
X 52.0108 33.5430 56.8110
X 52.0108 33.5430 57.5110
X 52.0108 33.5430 58.2110
X 52.0108 33.5430 58.9110
X 52.0108 33.5430 59.6110
X 52.0108 33.5430 60.3110
X 52.0108 33.5430 61.0110
X 52.0108 33.5430 61.7110
X 52.0108 33.5430 62.4110
X 52.0108 33.5430 63.1110
X 52.0108 33.5430 63.8110
X 52.7108 33.5430 46.3110
X 52.7108 33.5430 47.0110
X 52.7108 33.5430 47.7110
X 52.7108 33.5430 48.4110
X 52.7108 33.5430 49.1110
X 52.7108 33.5430 49.8110
X 52.7108 33.5430 50.5110
X 52.7108 33.5430 51.2110
X 52.7108 33.5430 51.9110
X 52.7108 33.5430 52.6110
X 52.7108 33.5430 53.3110
X 52.7108 33.5430 55.4110
X 52.7108 33.5430 56.1110
X 52.7108 33.5430 56.8110
X 52.7108 33.5430 57.5110
X 52.7108 33.5430 58.2110
X 52.7108 33.5430 58.9110
X 52.7108 33.5430 59.6110
X 52.7108 33.5430 60.3110
X 52.7108 33.5430 61.0110
X 52.7108 33.5430 61.7110
X 52.7108 33.5430 62.4110
X 52.7108 33.5430 63.1110
X 52.7108 33.5430 63.8110
X 52.7108 33.5430 64.5110
X 53.4108 33.5430 45.6110
X 53.4108 33.5430 46.3110
X 53.4108 33.5430 47.0110
X 53.4108 33.5430 47.7110
X 53.4108 33.5430 48.4110
X 53.4108 33.5430 49.1110
X 53.4108 33.5430 49.8110
X 53.4108 33.5430 50.5110
X 53.4108 33.5430 51.2110
X 53.4108 33.5430 51.9110
X 53.4108 33.5430 56.8110
X 53.4108 33.5430 57.5110
X 53.4108 33.5430 58.2110
X 53.4108 33.5430 58.9110
X 53.4108 33.5430 59.6110
X 53.4108 33.5430 60.3110
X 53.4108 33.5430 61.0110
X 53.4108 33.5430 61.7110
X 53.4108 33.5430 62.4110
X 53.4108 33.5430 63.1110
X 53.4108 33.5430 63.8110
X 53.4108 33.5430 64.5110
X 54.1108 33.5430 45.6110
X 54.1108 33.5430 46.3110
X 54.1108 33.5430 47.0110
X 54.1108 33.5430 47.7110
X 54.1108 33.5430 48.4110
X 54.1108 33.5430 49.1110
X 54.1108 33.5430 49.8110
X 54.1108 33.5430 50.5110
X 54.1108 33.5430 51.2110
X 54.1108 33.5430 58.2110
X 54.1108 33.5430 58.9110
X 54.1108 33.5430 59.6110
X 54.1108 33.5430 60.3110
X 54.1108 33.5430 61.0110
X 54.1108 33.5430 61.7110
X 54.1108 33.5430 62.4110
X 54.1108 33.5430 63.1110
X 54.1108 33.5430 63.8110
X 54.1108 33.5430 64.5110
X 54.1108 33.5430 65.2110
X 54.8108 33.5430 44.9110
X 54.8108 33.5430 45.6110
X 54.8108 33.5430 46.3110
X 54.8108 33.5430 47.0110
X 54.8108 33.5430 47.7110
X 54.8108 33.5430 48.4110
X 54.8108 33.5430 49.1110
X 54.8108 33.5430 49.8110
X 54.8108 33.5430 50.5110
X 54.8108 33.5430 51.2110
X 54.8108 33.5430 59.6110
X 54.8108 33.5430 60.3110
X 54.8108 33.5430 61.0110
X 54.8108 33.5430 61.7110
X 54.8108 33.5430 62.4110
X 54.8108 33.5430 63.1110
X 54.8108 33.5430 63.8110
X 54.8108 33.5430 64.5110
X 54.8108 33.5430 65.2110
X 55.5108 33.5430 44.9110
X 55.5108 33.5430 45.6110
X 55.5108 33.5430 46.3110
X 55.5108 33.5430 47.0110
X 55.5108 33.5430 47.7110
X 55.5108 33.5430 48.4110
X 55.5108 33.5430 49.1110
X 55.5108 33.5430 49.8110
X 55.5108 33.5430 50.5110
X 55.5108 33.5430 60.3110
X 55.5108 33.5430 61.0110
X 55.5108 33.5430 61.7110
X 55.5108 33.5430 62.4110
X 55.5108 33.5430 63.1110
X 55.5108 33.5430 63.8110
X 55.5108 33.5430 64.5110
X 55.5108 33.5430 65.2110
X 55.5108 33.5430 65.9110
X 56.2108 33.5430 44.9110
X 56.2108 33.5430 45.6110
X 56.2108 33.5430 46.3110
X 56.2108 33.5430 47.0110
X 56.2108 33.5430 47.7110
X 56.2108 33.5430 48.4110
X 56.2108 33.5430 49.1110
X 56.2108 33.5430 49.8110
X 56.2108 33.5430 50.5110
X 56.2108 33.5430 61.0110
X 56.2108 33.5430 61.7110
X 56.2108 33.5430 62.4110
X 56.2108 33.5430 63.1110
X 56.2108 33.5430 63.8110
X 56.2108 33.5430 64.5110
X 56.2108 33.5430 65.2110
X 56.2108 33.5430 65.9110
X 56.9108 33.5430 44.9110
X 56.9108 33.5430 45.6110
X 56.9108 33.5430 46.3110
X 56.9108 33.5430 47.0110
X 56.9108 33.5430 47.7110
X 56.9108 33.5430 48.4110
X 56.9108 33.5430 49.1110
X 56.9108 33.5430 49.8110
X 56.9108 33.5430 61.0110
X 56.9108 33.5430 61.7110
X 56.9108 33.5430 62.4110
X 56.9108 33.5430 63.1110
X 56.9108 33.5430 63.8110
X 56.9108 33.5430 64.5110
X 56.9108 33.5430 65.2110
X 56.9108 33.5430 65.9110
X 57.6108 33.5430 44.9110
X 57.6108 33.5430 45.6110
X 57.6108 33.5430 46.3110
X 57.6108 33.5430 47.0110
X 57.6108 33.5430 47.7110
X 57.6108 33.5430 48.4110
X 57.6108 33.5430 49.1110
X 57.6108 33.5430 49.8110
X 57.6108 33.5430 61.0110
X 57.6108 33.5430 61.7110
X 57.6108 33.5430 62.4110
X 57.6108 33.5430 63.1110
X 57.6108 33.5430 63.8110
X 57.6108 33.5430 64.5110
X 57.6108 33.5430 65.2110
X 57.6108 33.5430 65.9110
X 58.3108 33.5430 44.9110
X 58.3108 33.5430 45.6110
X 58.3108 33.5430 46.3110
X 58.3108 33.5430 47.0110
X 58.3108 33.5430 47.7110
X 58.3108 33.5430 48.4110
X 58.3108 33.5430 49.1110
X 58.3108 33.5430 49.8110
X 58.3108 33.5430 61.0110
X 58.3108 33.5430 61.7110
X 58.3108 33.5430 62.4110
X 58.3108 33.5430 63.1110
X 58.3108 33.5430 63.8110
X 58.3108 33.5430 64.5110
X 58.3108 33.5430 65.2110
X 58.3108 33.5430 65.9110
X 59.0108 33.5430 44.2110
X 59.0108 33.5430 44.9110
X 59.0108 33.5430 45.6110
X 59.0108 33.5430 46.3110
X 59.0108 33.5430 47.0110
X 59.0108 33.5430 47.7110
X 59.0108 33.5430 48.4110
X 59.0108 33.5430 49.1110
X 59.0108 33.5430 49.8110
X 59.0108 33.5430 61.0110
X 59.0108 33.5430 61.7110
X 59.0108 33.5430 62.4110
X 59.0108 33.5430 63.1110
X 59.0108 33.5430 63.8110
X 59.0108 33.5430 64.5110
X 59.0108 33.5430 65.2110
X 59.0108 33.5430 65.9110
X 59.7108 33.5430 44.2110
X 59.7108 33.5430 44.9110
X 59.7108 33.5430 45.6110
X 59.7108 33.5430 46.3110
X 59.7108 33.5430 47.0110
X 59.7108 33.5430 47.7110
X 59.7108 33.5430 48.4110
X 59.7108 33.5430 49.1110
X 59.7108 33.5430 49.8110
X 59.7108 33.5430 61.0110
X 59.7108 33.5430 61.7110
X 59.7108 33.5430 62.4110
X 59.7108 33.5430 63.1110
X 59.7108 33.5430 63.8110
X 59.7108 33.5430 64.5110
X 59.7108 33.5430 65.2110
X 59.7108 33.5430 65.9110
X 60.4108 33.5430 44.2110
X 60.4108 33.5430 44.9110
X 60.4108 33.5430 45.6110
X 60.4108 33.5430 46.3110
X 60.4108 33.5430 47.0110
X 60.4108 33.5430 47.7110
X 60.4108 33.5430 48.4110
X 60.4108 33.5430 49.1110
X 60.4108 33.5430 49.8110
X 60.4108 33.5430 61.0110
X 60.4108 33.5430 61.7110
X 60.4108 33.5430 62.4110
X 60.4108 33.5430 63.1110
X 60.4108 33.5430 63.8110
X 60.4108 33.5430 64.5110
X 60.4108 33.5430 65.2110
X 60.4108 33.5430 65.9110
X 61.1108 33.5430 44.9110
X 61.1108 33.5430 45.6110
X 61.1108 33.5430 46.3110
X 61.1108 33.5430 47.0110
X 61.1108 33.5430 47.7110
X 61.1108 33.5430 48.4110
X 61.1108 33.5430 49.1110
X 61.1108 33.5430 49.8110
X 61.1108 33.5430 61.0110
X 61.1108 33.5430 61.7110
X 61.1108 33.5430 62.4110
X 61.1108 33.5430 63.1110
X 61.1108 33.5430 63.8110
X 61.1108 33.5430 64.5110
X 61.1108 33.5430 65.2110
X 61.1108 33.5430 65.9110
X 61.8108 33.5430 44.9110
X 61.8108 33.5430 45.6110
X 61.8108 33.5430 46.3110
X 61.8108 33.5430 47.0110
X 61.8108 33.5430 47.7110
X 61.8108 33.5430 48.4110
X 61.8108 33.5430 49.1110
X 61.8108 33.5430 49.8110
X 61.8108 33.5430 61.0110
X 61.8108 33.5430 61.7110
X 61.8108 33.5430 62.4110
X 61.8108 33.5430 63.1110
X 61.8108 33.5430 63.8110
X 61.8108 33.5430 64.5110
X 61.8108 33.5430 65.2110
X 61.8108 33.5430 65.9110
X 62.5108 33.5430 44.9110
X 62.5108 33.5430 45.6110
X 62.5108 33.5430 46.3110
X 62.5108 33.5430 47.0110
X 62.5108 33.5430 47.7110
X 62.5108 33.5430 48.4110
X 62.5108 33.5430 49.1110
X 62.5108 33.5430 49.8110
X 62.5108 33.5430 60.3110
X 62.5108 33.5430 61.0110
X 62.5108 33.5430 61.7110
X 62.5108 33.5430 62.4110
X 62.5108 33.5430 63.1110
X 62.5108 33.5430 63.8110
X 62.5108 33.5430 64.5110
X 62.5108 33.5430 65.2110
X 62.5108 33.5430 65.9110
X 63.2108 33.5430 44.9110
X 63.2108 33.5430 45.6110
X 63.2108 33.5430 46.3110
X 63.2108 33.5430 47.0110
X 63.2108 33.5430 47.7110
X 63.2108 33.5430 48.4110
X 63.2108 33.5430 49.1110
X 63.2108 33.5430 49.8110
X 63.2108 33.5430 50.5110
X 63.2108 33.5430 59.6110
X 63.2108 33.5430 60.3110
X 63.2108 33.5430 61.0110
X 63.2108 33.5430 61.7110
X 63.2108 33.5430 62.4110
X 63.2108 33.5430 63.1110
X 63.2108 33.5430 63.8110
X 63.2108 33.5430 64.5110
X 63.2108 33.5430 65.2110
X 63.2108 33.5430 65.9110
X 63.9108 33.5430 44.9110
X 63.9108 33.5430 45.6110
X 63.9108 33.5430 46.3110
X 63.9108 33.5430 47.0110
X 63.9108 33.5430 47.7110
X 63.9108 33.5430 48.4110
X 63.9108 33.5430 49.1110
X 63.9108 33.5430 49.8110
X 63.9108 33.5430 50.5110
X 63.9108 33.5430 58.2110
X 63.9108 33.5430 58.9110
X 63.9108 33.5430 59.6110
X 63.9108 33.5430 60.3110
X 63.9108 33.5430 61.0110
X 63.9108 33.5430 61.7110
X 63.9108 33.5430 62.4110
X 63.9108 33.5430 63.1110
X 63.9108 33.5430 63.8110
X 63.9108 33.5430 64.5110
X 63.9108 33.5430 65.2110
X 64.6108 33.5430 45.6110
X 64.6108 33.5430 46.3110
X 64.6108 33.5430 47.0110
X 64.6108 33.5430 47.7110
X 64.6108 33.5430 48.4110
X 64.6108 33.5430 49.1110
X 64.6108 33.5430 49.8110
X 64.6108 33.5430 50.5110
X 64.6108 33.5430 51.2110
X 64.6108 33.5430 51.9110
X 64.6108 33.5430 56.8110
X 64.6108 33.5430 57.5110
X 64.6108 33.5430 58.2110
X 64.6108 33.5430 58.9110
X 64.6108 33.5430 59.6110
X 64.6108 33.5430 60.3110
X 64.6108 33.5430 61.0110
X 64.6108 33.5430 61.7110
X 64.6108 33.5430 62.4110
X 64.6108 33.5430 63.1110
X 64.6108 33.5430 63.8110
X 64.6108 33.5430 64.5110
X 64.6108 33.5430 65.2110
X 65.3108 33.5430 45.6110
X 65.3108 33.5430 46.3110
X 65.3108 33.5430 47.0110
X 65.3108 33.5430 47.7110
X 65.3108 33.5430 48.4110
X 65.3108 33.5430 49.1110
X 65.3108 33.5430 49.8110
X 65.3108 33.5430 50.5110
X 65.3108 33.5430 51.2110
X 65.3108 33.5430 51.9110
X 65.3108 33.5430 52.6110
X 65.3108 33.5430 53.3110
X 65.3108 33.5430 54.0110
X 65.3108 33.5430 54.7110
X 65.3108 33.5430 55.4110
X 65.3108 33.5430 56.1110
X 65.3108 33.5430 56.8110
X 65.3108 33.5430 57.5110
X 65.3108 33.5430 58.2110
X 65.3108 33.5430 58.9110
X 65.3108 33.5430 59.6110
X 65.3108 33.5430 60.3110
X 65.3108 33.5430 61.0110
X 65.3108 33.5430 61.7110
X 65.3108 33.5430 62.4110
X 65.3108 33.5430 63.1110
X 65.3108 33.5430 63.8110
X 65.3108 33.5430 64.5110
X 66.0108 33.5430 46.3110
X 66.0108 33.5430 47.0110
X 66.0108 33.5430 47.7110
X 66.0108 33.5430 48.4110
X 66.0108 33.5430 49.1110
X 66.0108 33.5430 49.8110
X 66.0108 33.5430 50.5110
X 66.0108 33.5430 51.2110
X 66.0108 33.5430 51.9110
X 66.0108 33.5430 52.6110
X 66.0108 33.5430 53.3110
X 66.0108 33.5430 54.0110
X 66.0108 33.5430 54.7110
X 66.0108 33.5430 55.4110
X 66.0108 33.5430 56.1110
X 66.0108 33.5430 56.8110
X 66.0108 33.5430 57.5110
X 66.0108 33.5430 58.2110
X 66.0108 33.5430 58.9110
X 66.0108 33.5430 59.6110
X 66.0108 33.5430 60.3110
X 66.0108 33.5430 61.0110
X 66.0108 33.5430 61.7110
X 66.0108 33.5430 62.4110
X 66.0108 33.5430 63.1110
X 66.0108 33.5430 63.8110
X 66.0108 33.5430 64.5110
X 66.7108 33.5430 46.3110
X 66.7108 33.5430 47.0110
X 66.7108 33.5430 47.7110
X 66.7108 33.5430 48.4110
X 66.7108 33.5430 49.1110
X 66.7108 33.5430 49.8110
X 66.7108 33.5430 50.5110
X 66.7108 33.5430 51.2110
X 66.7108 33.5430 51.9110
X 66.7108 33.5430 52.6110
X 66.7108 33.5430 53.3110
X 66.7108 33.5430 54.0110
X 66.7108 33.5430 54.7110
X 66.7108 33.5430 55.4110
X 66.7108 33.5430 56.1110
X 66.7108 33.5430 56.8110
X 66.7108 33.5430 57.5110
X 66.7108 33.5430 58.2110
X 66.7108 33.5430 58.9110
X 66.7108 33.5430 59.6110
X 66.7108 33.5430 60.3110
X 66.7108 33.5430 61.0110
X 66.7108 33.5430 61.7110
X 66.7108 33.5430 62.4110
X 66.7108 33.5430 63.1110
X 66.7108 33.5430 63.8110
X 67.4108 33.5430 47.0110
X 67.4108 33.5430 47.7110
X 67.4108 33.5430 48.4110
X 67.4108 33.5430 49.1110
X 67.4108 33.5430 49.8110
X 67.4108 33.5430 50.5110
X 67.4108 33.5430 51.2110
X 67.4108 33.5430 51.9110
X 67.4108 33.5430 52.6110
X 67.4108 33.5430 53.3110
X 67.4108 33.5430 54.0110
X 67.4108 33.5430 54.7110
X 67.4108 33.5430 55.4110
X 67.4108 33.5430 56.1110
X 67.4108 33.5430 56.8110
X 67.4108 33.5430 57.5110
X 67.4108 33.5430 58.2110
X 67.4108 33.5430 58.9110
X 67.4108 33.5430 59.6110
X 67.4108 33.5430 60.3110
X 67.4108 33.5430 61.0110
X 67.4108 33.5430 61.7110
X 67.4108 33.5430 62.4110
X 67.4108 33.5430 63.1110
X 68.1108 33.5430 47.7110
X 68.1108 33.5430 48.4110
X 68.1108 33.5430 49.1110
X 68.1108 33.5430 49.8110
X 68.1108 33.5430 50.5110
X 68.1108 33.5430 51.2110
X 68.1108 33.5430 51.9110
X 68.1108 33.5430 52.6110
X 68.1108 33.5430 53.3110
X 68.1108 33.5430 54.0110
X 68.1108 33.5430 54.7110
X 68.1108 33.5430 55.4110
X 68.1108 33.5430 56.1110
X 68.1108 33.5430 56.8110
X 68.1108 33.5430 57.5110
X 68.1108 33.5430 58.2110
X 68.1108 33.5430 58.9110
X 68.1108 33.5430 59.6110
X 68.1108 33.5430 60.3110
X 68.1108 33.5430 61.0110
X 68.1108 33.5430 61.7110
X 68.8108 33.5430 48.4110
X 68.8108 33.5430 49.1110
X 68.8108 33.5430 49.8110
X 68.8108 33.5430 50.5110
X 68.8108 33.5430 51.2110
X 68.8108 33.5430 51.9110
X 68.8108 33.5430 52.6110
X 68.8108 33.5430 53.3110
X 68.8108 33.5430 54.0110
X 68.8108 33.5430 54.7110
X 68.8108 33.5430 55.4110
X 68.8108 33.5430 56.1110
X 68.8108 33.5430 56.8110
X 68.8108 33.5430 57.5110
X 68.8108 33.5430 58.2110
X 68.8108 33.5430 58.9110
X 68.8108 33.5430 59.6110
X 68.8108 33.5430 60.3110
X 68.8108 33.5430 61.0110
X 69.5108 33.5430 49.8110
X 69.5108 33.5430 50.5110
X 69.5108 33.5430 51.2110
X 69.5108 33.5430 51.9110
X 69.5108 33.5430 52.6110
X 69.5108 33.5430 53.3110
X 69.5108 33.5430 54.0110
X 69.5108 33.5430 54.7110
X 69.5108 33.5430 55.4110
X 69.5108 33.5430 56.1110
X 69.5108 33.5430 56.8110
X 69.5108 33.5430 57.5110
X 69.5108 33.5430 58.2110
X 69.5108 33.5430 58.9110
X 69.5108 33.5430 59.6110
X 70.2108 33.5430 51.9110
X 70.2108 33.5430 52.6110
X 70.2108 33.5430 53.3110
X 70.2108 33.5430 54.0110
X 70.2108 33.5430 54.7110
X 70.2108 33.5430 55.4110
X 70.2108 33.5430 56.1110
X 70.2108 33.5430 56.8110
X 70.2108 33.5430 57.5110
X 47.1108 34.2430 52.6110
X 47.1108 34.2430 53.3110
X 47.1108 34.2430 54.0110
X 47.1108 34.2430 54.7110
X 47.1108 34.2430 55.4110
X 47.1108 34.2430 56.1110
X 47.1108 34.2430 56.8110
X 47.1108 34.2430 57.5110
X 47.8108 34.2430 51.2110
X 47.8108 34.2430 51.9110
X 47.8108 34.2430 52.6110
X 47.8108 34.2430 53.3110
X 47.8108 34.2430 54.0110
X 47.8108 34.2430 54.7110
X 47.8108 34.2430 55.4110
X 47.8108 34.2430 56.1110
X 47.8108 34.2430 56.8110
X 47.8108 34.2430 57.5110
X 47.8108 34.2430 58.2110
X 47.8108 34.2430 58.9110
X 48.5108 34.2430 49.8110
X 48.5108 34.2430 50.5110
X 48.5108 34.2430 51.2110
X 48.5108 34.2430 51.9110
X 48.5108 34.2430 52.6110
X 48.5108 34.2430 53.3110
X 48.5108 34.2430 54.0110
X 48.5108 34.2430 54.7110
X 48.5108 34.2430 55.4110
X 48.5108 34.2430 56.1110
X 48.5108 34.2430 56.8110
X 48.5108 34.2430 57.5110
X 48.5108 34.2430 58.2110
X 48.5108 34.2430 58.9110
X 48.5108 34.2430 59.6110
X 48.5108 34.2430 60.3110
X 49.2108 34.2430 49.1110
X 49.2108 34.2430 49.8110
X 49.2108 34.2430 50.5110
X 49.2108 34.2430 51.2110
X 49.2108 34.2430 51.9110
X 49.2108 34.2430 52.6110
X 49.2108 34.2430 53.3110
X 49.2108 34.2430 54.0110
X 49.2108 34.2430 54.7110
X 49.2108 34.2430 55.4110
X 49.2108 34.2430 56.1110
X 49.2108 34.2430 56.8110
X 49.2108 34.2430 57.5110
X 49.2108 34.2430 58.2110
X 49.2108 34.2430 58.9110
X 49.2108 34.2430 59.6110
X 49.2108 34.2430 60.3110
X 49.2108 34.2430 61.0110
X 49.9108 34.2430 48.4110
X 49.9108 34.2430 49.1110
X 49.9108 34.2430 49.8110
X 49.9108 34.2430 50.5110
X 49.9108 34.2430 51.2110
X 49.9108 34.2430 51.9110
X 49.9108 34.2430 52.6110
X 49.9108 34.2430 53.3110
X 49.9108 34.2430 54.0110
X 49.9108 34.2430 54.7110
X 49.9108 34.2430 55.4110
X 49.9108 34.2430 56.1110
X 49.9108 34.2430 56.8110
X 49.9108 34.2430 57.5110
X 49.9108 34.2430 58.2110
X 49.9108 34.2430 58.9110
X 49.9108 34.2430 59.6110
X 49.9108 34.2430 60.3110
X 49.9108 34.2430 61.0110
X 49.9108 34.2430 61.7110
X 49.9108 34.2430 62.4110
X 50.6108 34.2430 47.7110
X 50.6108 34.2430 48.4110
X 50.6108 34.2430 49.1110
X 50.6108 34.2430 49.8110
X 50.6108 34.2430 50.5110
X 50.6108 34.2430 51.2110
X 50.6108 34.2430 51.9110
X 50.6108 34.2430 52.6110
X 50.6108 34.2430 53.3110
X 50.6108 34.2430 54.0110
X 50.6108 34.2430 54.7110
X 50.6108 34.2430 55.4110
X 50.6108 34.2430 56.1110
X 50.6108 34.2430 56.8110
X 50.6108 34.2430 57.5110
X 50.6108 34.2430 58.2110
X 50.6108 34.2430 58.9110
X 50.6108 34.2430 59.6110
X 50.6108 34.2430 60.3110
X 50.6108 34.2430 61.0110
X 50.6108 34.2430 61.7110
X 50.6108 34.2430 62.4110
X 50.6108 34.2430 63.1110
X 51.3108 34.2430 47.0110
X 51.3108 34.2430 47.7110
X 51.3108 34.2430 48.4110
X 51.3108 34.2430 49.1110
X 51.3108 34.2430 49.8110
X 51.3108 34.2430 50.5110
X 51.3108 34.2430 51.2110
X 51.3108 34.2430 51.9110
X 51.3108 34.2430 52.6110
X 51.3108 34.2430 53.3110
X 51.3108 34.2430 54.0110
X 51.3108 34.2430 54.7110
X 51.3108 34.2430 55.4110
X 51.3108 34.2430 56.1110
X 51.3108 34.2430 56.8110
X 51.3108 34.2430 57.5110
X 51.3108 34.2430 58.2110
X 51.3108 34.2430 58.9110
X 51.3108 34.2430 59.6110
X 51.3108 34.2430 60.3110
X 51.3108 34.2430 61.0110
X 51.3108 34.2430 61.7110
X 51.3108 34.2430 62.4110
X 51.3108 34.2430 63.1110
X 51.3108 34.2430 63.8110
X 52.0108 34.2430 46.3110
X 52.0108 34.2430 47.0110
X 52.0108 34.2430 47.7110
X 52.0108 34.2430 48.4110
X 52.0108 34.2430 49.1110
X 52.0108 34.2430 49.8110
X 52.0108 34.2430 50.5110
X 52.0108 34.2430 51.2110
X 52.0108 34.2430 51.9110
X 52.0108 34.2430 52.6110
X 52.0108 34.2430 53.3110
X 52.0108 34.2430 54.0110
X 52.0108 34.2430 54.7110
X 52.0108 34.2430 55.4110
X 52.0108 34.2430 56.1110
X 52.0108 34.2430 56.8110
X 52.0108 34.2430 57.5110
X 52.0108 34.2430 58.2110
X 52.0108 34.2430 58.9110
X 52.0108 34.2430 59.6110
X 52.0108 34.2430 60.3110
X 52.0108 34.2430 61.0110
X 52.0108 34.2430 61.7110
X 52.0108 34.2430 62.4110
X 52.0108 34.2430 63.1110
X 52.0108 34.2430 63.8110
X 52.7108 34.2430 46.3110
X 52.7108 34.2430 47.0110
X 52.7108 34.2430 47.7110
X 52.7108 34.2430 48.4110
X 52.7108 34.2430 49.1110
X 52.7108 34.2430 49.8110
X 52.7108 34.2430 50.5110
X 52.7108 34.2430 51.2110
X 52.7108 34.2430 51.9110
X 52.7108 34.2430 52.6110
X 52.7108 34.2430 53.3110
X 52.7108 34.2430 54.0110
X 52.7108 34.2430 54.7110
X 52.7108 34.2430 55.4110
X 52.7108 34.2430 56.1110
X 52.7108 34.2430 56.8110
X 52.7108 34.2430 57.5110
X 52.7108 34.2430 58.2110
X 52.7108 34.2430 58.9110
X 52.7108 34.2430 59.6110
X 52.7108 34.2430 60.3110
X 52.7108 34.2430 61.0110
X 52.7108 34.2430 61.7110
X 52.7108 34.2430 62.4110
X 52.7108 34.2430 63.1110
X 52.7108 34.2430 63.8110
X 52.7108 34.2430 64.5110
X 53.4108 34.2430 45.6110
X 53.4108 34.2430 46.3110
X 53.4108 34.2430 47.0110
X 53.4108 34.2430 47.7110
X 53.4108 34.2430 48.4110
X 53.4108 34.2430 49.1110
X 53.4108 34.2430 49.8110
X 53.4108 34.2430 50.5110
X 53.4108 34.2430 51.2110
X 53.4108 34.2430 51.9110
X 53.4108 34.2430 52.6110
X 53.4108 34.2430 56.8110
X 53.4108 34.2430 57.5110
X 53.4108 34.2430 58.2110
X 53.4108 34.2430 58.9110
X 53.4108 34.2430 59.6110
X 53.4108 34.2430 60.3110
X 53.4108 34.2430 61.0110
X 53.4108 34.2430 61.7110
X 53.4108 34.2430 62.4110
X 53.4108 34.2430 63.1110
X 53.4108 34.2430 63.8110
X 53.4108 34.2430 64.5110
X 54.1108 34.2430 45.6110
X 54.1108 34.2430 46.3110
X 54.1108 34.2430 47.0110
X 54.1108 34.2430 47.7110
X 54.1108 34.2430 48.4110
X 54.1108 34.2430 49.1110
X 54.1108 34.2430 49.8110
X 54.1108 34.2430 50.5110
X 54.1108 34.2430 51.2110
X 54.1108 34.2430 51.9110
X 54.1108 34.2430 58.9110
X 54.1108 34.2430 59.6110
X 54.1108 34.2430 60.3110
X 54.1108 34.2430 61.0110
X 54.1108 34.2430 61.7110
X 54.1108 34.2430 62.4110
X 54.1108 34.2430 63.1110
X 54.1108 34.2430 63.8110
X 54.1108 34.2430 64.5110
X 54.1108 34.2430 65.2110
X 54.8108 34.2430 44.9110
X 54.8108 34.2430 45.6110
X 54.8108 34.2430 46.3110
X 54.8108 34.2430 47.0110
X 54.8108 34.2430 47.7110
X 54.8108 34.2430 48.4110
X 54.8108 34.2430 49.1110
X 54.8108 34.2430 49.8110
X 54.8108 34.2430 50.5110
X 54.8108 34.2430 51.2110
X 54.8108 34.2430 59.6110
X 54.8108 34.2430 60.3110
X 54.8108 34.2430 61.0110
X 54.8108 34.2430 61.7110
X 54.8108 34.2430 62.4110
X 54.8108 34.2430 63.1110
X 54.8108 34.2430 63.8110
X 54.8108 34.2430 64.5110
X 54.8108 34.2430 65.2110
X 55.5108 34.2430 44.9110
X 55.5108 34.2430 45.6110
X 55.5108 34.2430 46.3110
X 55.5108 34.2430 47.0110
X 55.5108 34.2430 47.7110
X 55.5108 34.2430 48.4110
X 55.5108 34.2430 49.1110
X 55.5108 34.2430 49.8110
X 55.5108 34.2430 50.5110
X 55.5108 34.2430 60.3110
X 55.5108 34.2430 61.0110
X 55.5108 34.2430 61.7110
X 55.5108 34.2430 62.4110
X 55.5108 34.2430 63.1110
X 55.5108 34.2430 63.8110
X 55.5108 34.2430 64.5110
X 55.5108 34.2430 65.2110
X 55.5108 34.2430 65.9110
X 56.2108 34.2430 44.9110
X 56.2108 34.2430 45.6110
X 56.2108 34.2430 46.3110
X 56.2108 34.2430 47.0110
X 56.2108 34.2430 47.7110
X 56.2108 34.2430 48.4110
X 56.2108 34.2430 49.1110
X 56.2108 34.2430 49.8110
X 56.2108 34.2430 50.5110
X 56.2108 34.2430 61.0110
X 56.2108 34.2430 61.7110
X 56.2108 34.2430 62.4110
X 56.2108 34.2430 63.1110
X 56.2108 34.2430 63.8110
X 56.2108 34.2430 64.5110
X 56.2108 34.2430 65.2110
X 56.2108 34.2430 65.9110
X 56.9108 34.2430 44.9110
X 56.9108 34.2430 45.6110
X 56.9108 34.2430 46.3110
X 56.9108 34.2430 47.0110
X 56.9108 34.2430 47.7110
X 56.9108 34.2430 48.4110
X 56.9108 34.2430 49.1110
X 56.9108 34.2430 49.8110
X 56.9108 34.2430 61.0110
X 56.9108 34.2430 61.7110
X 56.9108 34.2430 62.4110
X 56.9108 34.2430 63.1110
X 56.9108 34.2430 63.8110
X 56.9108 34.2430 64.5110
X 56.9108 34.2430 65.2110
X 56.9108 34.2430 65.9110
X 57.6108 34.2430 44.9110
X 57.6108 34.2430 45.6110
X 57.6108 34.2430 46.3110
X 57.6108 34.2430 47.0110
X 57.6108 34.2430 47.7110
X 57.6108 34.2430 48.4110
X 57.6108 34.2430 49.1110
X 57.6108 34.2430 49.8110
X 57.6108 34.2430 61.0110
X 57.6108 34.2430 61.7110
X 57.6108 34.2430 62.4110
X 57.6108 34.2430 63.1110
X 57.6108 34.2430 63.8110
X 57.6108 34.2430 64.5110
X 57.6108 34.2430 65.2110
X 57.6108 34.2430 65.9110
X 58.3108 34.2430 44.9110
X 58.3108 34.2430 45.6110
X 58.3108 34.2430 46.3110
X 58.3108 34.2430 47.0110
X 58.3108 34.2430 47.7110
X 58.3108 34.2430 48.4110
X 58.3108 34.2430 49.1110
X 58.3108 34.2430 49.8110
X 58.3108 34.2430 61.0110
X 58.3108 34.2430 61.7110
X 58.3108 34.2430 62.4110
X 58.3108 34.2430 63.1110
X 58.3108 34.2430 63.8110
X 58.3108 34.2430 64.5110
X 58.3108 34.2430 65.2110
X 58.3108 34.2430 65.9110
X 59.0108 34.2430 44.2110
X 59.0108 34.2430 44.9110
X 59.0108 34.2430 45.6110
X 59.0108 34.2430 46.3110
X 59.0108 34.2430 47.0110
X 59.0108 34.2430 47.7110
X 59.0108 34.2430 48.4110
X 59.0108 34.2430 49.1110
X 59.0108 34.2430 49.8110
X 59.0108 34.2430 61.0110
X 59.0108 34.2430 61.7110
X 59.0108 34.2430 62.4110
X 59.0108 34.2430 63.1110
X 59.0108 34.2430 63.8110
X 59.0108 34.2430 64.5110
X 59.0108 34.2430 65.2110
X 59.0108 34.2430 65.9110
X 59.7108 34.2430 44.2110
X 59.7108 34.2430 44.9110
X 59.7108 34.2430 45.6110
X 59.7108 34.2430 46.3110
X 59.7108 34.2430 47.0110
X 59.7108 34.2430 47.7110
X 59.7108 34.2430 48.4110
X 59.7108 34.2430 49.1110
X 59.7108 34.2430 49.8110
X 59.7108 34.2430 61.0110
X 59.7108 34.2430 61.7110
X 59.7108 34.2430 62.4110
X 59.7108 34.2430 63.1110
X 59.7108 34.2430 63.8110
X 59.7108 34.2430 64.5110
X 59.7108 34.2430 65.2110
X 59.7108 34.2430 65.9110
X 60.4108 34.2430 44.2110
X 60.4108 34.2430 44.9110
X 60.4108 34.2430 45.6110
X 60.4108 34.2430 46.3110
X 60.4108 34.2430 47.0110
X 60.4108 34.2430 47.7110
X 60.4108 34.2430 48.4110
X 60.4108 34.2430 49.1110
X 60.4108 34.2430 49.8110
X 60.4108 34.2430 61.7110
X 60.4108 34.2430 62.4110
X 60.4108 34.2430 63.1110
X 60.4108 34.2430 63.8110
X 60.4108 34.2430 64.5110
X 60.4108 34.2430 65.2110
X 60.4108 34.2430 65.9110
X 61.1108 34.2430 44.9110
X 61.1108 34.2430 45.6110
X 61.1108 34.2430 46.3110
X 61.1108 34.2430 47.0110
X 61.1108 34.2430 47.7110
X 61.1108 34.2430 48.4110
X 61.1108 34.2430 49.1110
X 61.1108 34.2430 49.8110
X 61.1108 34.2430 50.5110
X 61.1108 34.2430 61.0110
X 61.1108 34.2430 61.7110
X 61.1108 34.2430 62.4110
X 61.1108 34.2430 63.1110
X 61.1108 34.2430 63.8110
X 61.1108 34.2430 64.5110
X 61.1108 34.2430 65.2110
X 61.1108 34.2430 65.9110
X 61.8108 34.2430 44.9110
X 61.8108 34.2430 45.6110
X 61.8108 34.2430 46.3110
X 61.8108 34.2430 47.0110
X 61.8108 34.2430 47.7110
X 61.8108 34.2430 48.4110
X 61.8108 34.2430 49.1110
X 61.8108 34.2430 49.8110
X 61.8108 34.2430 61.0110
X 61.8108 34.2430 61.7110
X 61.8108 34.2430 62.4110
X 61.8108 34.2430 63.1110
X 61.8108 34.2430 63.8110
X 61.8108 34.2430 64.5110
X 61.8108 34.2430 65.2110
X 61.8108 34.2430 65.9110
X 62.5108 34.2430 44.9110
X 62.5108 34.2430 45.6110
X 62.5108 34.2430 46.3110
X 62.5108 34.2430 47.0110
X 62.5108 34.2430 47.7110
X 62.5108 34.2430 48.4110
X 62.5108 34.2430 49.1110
X 62.5108 34.2430 49.8110
X 62.5108 34.2430 50.5110
X 62.5108 34.2430 60.3110
X 62.5108 34.2430 61.0110
X 62.5108 34.2430 61.7110
X 62.5108 34.2430 62.4110
X 62.5108 34.2430 63.1110
X 62.5108 34.2430 63.8110
X 62.5108 34.2430 64.5110
X 62.5108 34.2430 65.2110
X 62.5108 34.2430 65.9110
X 63.2108 34.2430 44.9110
X 63.2108 34.2430 45.6110
X 63.2108 34.2430 46.3110
X 63.2108 34.2430 47.0110
X 63.2108 34.2430 47.7110
X 63.2108 34.2430 48.4110
X 63.2108 34.2430 49.1110
X 63.2108 34.2430 49.8110
X 63.2108 34.2430 50.5110
X 63.2108 34.2430 59.6110
X 63.2108 34.2430 60.3110
X 63.2108 34.2430 61.0110
X 63.2108 34.2430 61.7110
X 63.2108 34.2430 62.4110
X 63.2108 34.2430 63.1110
X 63.2108 34.2430 63.8110
X 63.2108 34.2430 64.5110
X 63.2108 34.2430 65.2110
X 63.2108 34.2430 65.9110
X 63.9108 34.2430 45.6110
X 63.9108 34.2430 46.3110
X 63.9108 34.2430 47.0110
X 63.9108 34.2430 47.7110
X 63.9108 34.2430 48.4110
X 63.9108 34.2430 49.1110
X 63.9108 34.2430 49.8110
X 63.9108 34.2430 50.5110
X 63.9108 34.2430 51.2110
X 63.9108 34.2430 58.2110
X 63.9108 34.2430 58.9110
X 63.9108 34.2430 59.6110
X 63.9108 34.2430 60.3110
X 63.9108 34.2430 61.0110
X 63.9108 34.2430 61.7110
X 63.9108 34.2430 62.4110
X 63.9108 34.2430 63.1110
X 63.9108 34.2430 63.8110
X 63.9108 34.2430 64.5110
X 63.9108 34.2430 65.2110
X 64.6108 34.2430 45.6110
X 64.6108 34.2430 46.3110
X 64.6108 34.2430 47.0110
X 64.6108 34.2430 47.7110
X 64.6108 34.2430 48.4110
X 64.6108 34.2430 49.1110
X 64.6108 34.2430 49.8110
X 64.6108 34.2430 50.5110
X 64.6108 34.2430 51.2110
X 64.6108 34.2430 51.9110
X 64.6108 34.2430 52.6110
X 64.6108 34.2430 53.3110
X 64.6108 34.2430 54.0110
X 64.6108 34.2430 54.7110
X 64.6108 34.2430 55.4110
X 64.6108 34.2430 56.1110
X 64.6108 34.2430 56.8110
X 64.6108 34.2430 57.5110
X 64.6108 34.2430 58.2110
X 64.6108 34.2430 58.9110
X 64.6108 34.2430 59.6110
X 64.6108 34.2430 60.3110
X 64.6108 34.2430 61.0110
X 64.6108 34.2430 61.7110
X 64.6108 34.2430 62.4110
X 64.6108 34.2430 63.1110
X 64.6108 34.2430 63.8110
X 64.6108 34.2430 64.5110
X 64.6108 34.2430 65.2110
X 65.3108 34.2430 45.6110
X 65.3108 34.2430 46.3110
X 65.3108 34.2430 47.0110
X 65.3108 34.2430 47.7110
X 65.3108 34.2430 48.4110
X 65.3108 34.2430 49.1110
X 65.3108 34.2430 49.8110
X 65.3108 34.2430 50.5110
X 65.3108 34.2430 51.2110
X 65.3108 34.2430 51.9110
X 65.3108 34.2430 52.6110
X 65.3108 34.2430 53.3110
X 65.3108 34.2430 54.0110
X 65.3108 34.2430 54.7110
X 65.3108 34.2430 55.4110
X 65.3108 34.2430 56.1110
X 65.3108 34.2430 56.8110
X 65.3108 34.2430 57.5110
X 65.3108 34.2430 58.2110
X 65.3108 34.2430 58.9110
X 65.3108 34.2430 59.6110
X 65.3108 34.2430 60.3110
X 65.3108 34.2430 61.0110
X 65.3108 34.2430 61.7110
X 65.3108 34.2430 62.4110
X 65.3108 34.2430 63.1110
X 65.3108 34.2430 63.8110
X 65.3108 34.2430 64.5110
X 66.0108 34.2430 46.3110
X 66.0108 34.2430 47.0110
X 66.0108 34.2430 47.7110
X 66.0108 34.2430 48.4110
X 66.0108 34.2430 49.1110
X 66.0108 34.2430 49.8110
X 66.0108 34.2430 50.5110
X 66.0108 34.2430 51.2110
X 66.0108 34.2430 51.9110
X 66.0108 34.2430 52.6110
X 66.0108 34.2430 53.3110
X 66.0108 34.2430 54.0110
X 66.0108 34.2430 54.7110
X 66.0108 34.2430 55.4110
X 66.0108 34.2430 56.1110
X 66.0108 34.2430 56.8110
X 66.0108 34.2430 57.5110
X 66.0108 34.2430 58.2110
X 66.0108 34.2430 58.9110
X 66.0108 34.2430 59.6110
X 66.0108 34.2430 60.3110
X 66.0108 34.2430 61.0110
X 66.0108 34.2430 61.7110
X 66.0108 34.2430 62.4110
X 66.0108 34.2430 63.1110
X 66.0108 34.2430 63.8110
X 66.0108 34.2430 64.5110
X 66.7108 34.2430 46.3110
X 66.7108 34.2430 47.0110
X 66.7108 34.2430 47.7110
X 66.7108 34.2430 48.4110
X 66.7108 34.2430 49.1110
X 66.7108 34.2430 49.8110
X 66.7108 34.2430 50.5110
X 66.7108 34.2430 51.2110
X 66.7108 34.2430 51.9110
X 66.7108 34.2430 52.6110
X 66.7108 34.2430 53.3110
X 66.7108 34.2430 54.0110
X 66.7108 34.2430 54.7110
X 66.7108 34.2430 55.4110
X 66.7108 34.2430 56.1110
X 66.7108 34.2430 56.8110
X 66.7108 34.2430 57.5110
X 66.7108 34.2430 58.2110
X 66.7108 34.2430 58.9110
X 66.7108 34.2430 59.6110
X 66.7108 34.2430 60.3110
X 66.7108 34.2430 61.0110
X 66.7108 34.2430 61.7110
X 66.7108 34.2430 62.4110
X 66.7108 34.2430 63.1110
X 66.7108 34.2430 63.8110
X 67.4108 34.2430 47.0110
X 67.4108 34.2430 47.7110
X 67.4108 34.2430 48.4110
X 67.4108 34.2430 49.1110
X 67.4108 34.2430 49.8110
X 67.4108 34.2430 50.5110
X 67.4108 34.2430 51.2110
X 67.4108 34.2430 51.9110
X 67.4108 34.2430 52.6110
X 67.4108 34.2430 53.3110
X 67.4108 34.2430 54.0110
X 67.4108 34.2430 54.7110
X 67.4108 34.2430 55.4110
X 67.4108 34.2430 56.1110
X 67.4108 34.2430 56.8110
X 67.4108 34.2430 57.5110
X 67.4108 34.2430 58.2110
X 67.4108 34.2430 58.9110
X 67.4108 34.2430 59.6110
X 67.4108 34.2430 60.3110
X 67.4108 34.2430 61.0110
X 67.4108 34.2430 61.7110
X 67.4108 34.2430 62.4110
X 67.4108 34.2430 63.1110
X 68.1108 34.2430 47.7110
X 68.1108 34.2430 48.4110
X 68.1108 34.2430 49.1110
X 68.1108 34.2430 49.8110
X 68.1108 34.2430 50.5110
X 68.1108 34.2430 51.2110
X 68.1108 34.2430 51.9110
X 68.1108 34.2430 52.6110
X 68.1108 34.2430 53.3110
X 68.1108 34.2430 54.0110
X 68.1108 34.2430 54.7110
X 68.1108 34.2430 55.4110
X 68.1108 34.2430 56.1110
X 68.1108 34.2430 56.8110
X 68.1108 34.2430 57.5110
X 68.1108 34.2430 58.2110
X 68.1108 34.2430 58.9110
X 68.1108 34.2430 59.6110
X 68.1108 34.2430 60.3110
X 68.1108 34.2430 61.0110
X 68.1108 34.2430 61.7110
X 68.8108 34.2430 49.1110
X 68.8108 34.2430 49.8110
X 68.8108 34.2430 50.5110
X 68.8108 34.2430 51.2110
X 68.8108 34.2430 51.9110
X 68.8108 34.2430 52.6110
X 68.8108 34.2430 53.3110
X 68.8108 34.2430 54.0110
X 68.8108 34.2430 54.7110
X 68.8108 34.2430 55.4110
X 68.8108 34.2430 56.1110
X 68.8108 34.2430 56.8110
X 68.8108 34.2430 57.5110
X 68.8108 34.2430 58.2110
X 68.8108 34.2430 58.9110
X 68.8108 34.2430 59.6110
X 68.8108 34.2430 60.3110
X 69.5108 34.2430 49.8110
X 69.5108 34.2430 50.5110
X 69.5108 34.2430 51.2110
X 69.5108 34.2430 51.9110
X 69.5108 34.2430 52.6110
X 69.5108 34.2430 53.3110
X 69.5108 34.2430 54.0110
X 69.5108 34.2430 54.7110
X 69.5108 34.2430 55.4110
X 69.5108 34.2430 56.1110
X 69.5108 34.2430 56.8110
X 69.5108 34.2430 57.5110
X 69.5108 34.2430 58.2110
X 69.5108 34.2430 58.9110
X 70.2108 34.2430 52.6110
X 70.2108 34.2430 53.3110
X 70.2108 34.2430 54.0110
X 70.2108 34.2430 54.7110
X 70.2108 34.2430 55.4110
X 70.2108 34.2430 56.1110
X 70.2108 34.2430 56.8110
X 47.1108 34.9430 53.3110
X 47.1108 34.9430 54.0110
X 47.1108 34.9430 54.7110
X 47.1108 34.9430 55.4110
X 47.1108 34.9430 56.1110
X 47.1108 34.9430 56.8110
X 47.8108 34.9430 51.2110
X 47.8108 34.9430 51.9110
X 47.8108 34.9430 52.6110
X 47.8108 34.9430 53.3110
X 47.8108 34.9430 54.0110
X 47.8108 34.9430 54.7110
X 47.8108 34.9430 55.4110
X 47.8108 34.9430 56.1110
X 47.8108 34.9430 56.8110
X 47.8108 34.9430 57.5110
X 47.8108 34.9430 58.2110
X 47.8108 34.9430 58.9110
X 48.5108 34.9430 50.5110
X 48.5108 34.9430 51.2110
X 48.5108 34.9430 51.9110
X 48.5108 34.9430 52.6110
X 48.5108 34.9430 53.3110
X 48.5108 34.9430 54.0110
X 48.5108 34.9430 54.7110
X 48.5108 34.9430 55.4110
X 48.5108 34.9430 56.1110
X 48.5108 34.9430 56.8110
X 48.5108 34.9430 57.5110
X 48.5108 34.9430 58.2110
X 48.5108 34.9430 58.9110
X 48.5108 34.9430 59.6110
X 49.2108 34.9430 49.1110
X 49.2108 34.9430 49.8110
X 49.2108 34.9430 50.5110
X 49.2108 34.9430 51.2110
X 49.2108 34.9430 51.9110
X 49.2108 34.9430 52.6110
X 49.2108 34.9430 53.3110
X 49.2108 34.9430 54.0110
X 49.2108 34.9430 54.7110
X 49.2108 34.9430 55.4110
X 49.2108 34.9430 56.1110
X 49.2108 34.9430 56.8110
X 49.2108 34.9430 57.5110
X 49.2108 34.9430 58.2110
X 49.2108 34.9430 58.9110
X 49.2108 34.9430 59.6110
X 49.2108 34.9430 60.3110
X 49.2108 34.9430 61.0110
X 49.9108 34.9430 48.4110
X 49.9108 34.9430 49.1110
X 49.9108 34.9430 49.8110
X 49.9108 34.9430 50.5110
X 49.9108 34.9430 51.2110
X 49.9108 34.9430 51.9110
X 49.9108 34.9430 52.6110
X 49.9108 34.9430 53.3110
X 49.9108 34.9430 54.0110
X 49.9108 34.9430 54.7110
X 49.9108 34.9430 55.4110
X 49.9108 34.9430 56.1110
X 49.9108 34.9430 56.8110
X 49.9108 34.9430 57.5110
X 49.9108 34.9430 58.2110
X 49.9108 34.9430 58.9110
X 49.9108 34.9430 59.6110
X 49.9108 34.9430 60.3110
X 49.9108 34.9430 61.0110
X 49.9108 34.9430 61.7110
X 49.9108 34.9430 62.4110
X 50.6108 34.9430 47.7110
X 50.6108 34.9430 48.4110
X 50.6108 34.9430 49.1110
X 50.6108 34.9430 49.8110
X 50.6108 34.9430 50.5110
X 50.6108 34.9430 51.2110
X 50.6108 34.9430 51.9110
X 50.6108 34.9430 52.6110
X 50.6108 34.9430 53.3110
X 50.6108 34.9430 54.0110
X 50.6108 34.9430 54.7110
X 50.6108 34.9430 55.4110
X 50.6108 34.9430 56.1110
X 50.6108 34.9430 56.8110
X 50.6108 34.9430 57.5110
X 50.6108 34.9430 58.2110
X 50.6108 34.9430 58.9110
X 50.6108 34.9430 59.6110
X 50.6108 34.9430 60.3110
X 50.6108 34.9430 61.0110
X 50.6108 34.9430 61.7110
X 50.6108 34.9430 62.4110
X 50.6108 34.9430 63.1110
X 51.3108 34.9430 47.0110
X 51.3108 34.9430 47.7110
X 51.3108 34.9430 48.4110
X 51.3108 34.9430 49.1110
X 51.3108 34.9430 49.8110
X 51.3108 34.9430 50.5110
X 51.3108 34.9430 51.2110
X 51.3108 34.9430 51.9110
X 51.3108 34.9430 52.6110
X 51.3108 34.9430 53.3110
X 51.3108 34.9430 54.0110
X 51.3108 34.9430 54.7110
X 51.3108 34.9430 55.4110
X 51.3108 34.9430 56.1110
X 51.3108 34.9430 56.8110
X 51.3108 34.9430 57.5110
X 51.3108 34.9430 58.2110
X 51.3108 34.9430 58.9110
X 51.3108 34.9430 59.6110
X 51.3108 34.9430 60.3110
X 51.3108 34.9430 61.0110
X 51.3108 34.9430 61.7110
X 51.3108 34.9430 62.4110
X 51.3108 34.9430 63.1110
X 51.3108 34.9430 63.8110
X 52.0108 34.9430 46.3110
X 52.0108 34.9430 47.0110
X 52.0108 34.9430 47.7110
X 52.0108 34.9430 48.4110
X 52.0108 34.9430 49.1110
X 52.0108 34.9430 49.8110
X 52.0108 34.9430 50.5110
X 52.0108 34.9430 51.2110
X 52.0108 34.9430 51.9110
X 52.0108 34.9430 52.6110
X 52.0108 34.9430 53.3110
X 52.0108 34.9430 54.0110
X 52.0108 34.9430 54.7110
X 52.0108 34.9430 55.4110
X 52.0108 34.9430 56.1110
X 52.0108 34.9430 56.8110
X 52.0108 34.9430 57.5110
X 52.0108 34.9430 58.2110
X 52.0108 34.9430 58.9110
X 52.0108 34.9430 59.6110
X 52.0108 34.9430 60.3110
X 52.0108 34.9430 61.0110
X 52.0108 34.9430 61.7110
X 52.0108 34.9430 62.4110
X 52.0108 34.9430 63.1110
X 52.0108 34.9430 63.8110
X 52.0108 34.9430 64.5110
X 52.7108 34.9430 46.3110
X 52.7108 34.9430 47.0110
X 52.7108 34.9430 47.7110
X 52.7108 34.9430 48.4110
X 52.7108 34.9430 49.1110
X 52.7108 34.9430 49.8110
X 52.7108 34.9430 50.5110
X 52.7108 34.9430 51.2110
X 52.7108 34.9430 51.9110
X 52.7108 34.9430 52.6110
X 52.7108 34.9430 53.3110
X 52.7108 34.9430 54.0110
X 52.7108 34.9430 54.7110
X 52.7108 34.9430 55.4110
X 52.7108 34.9430 56.1110
X 52.7108 34.9430 56.8110
X 52.7108 34.9430 57.5110
X 52.7108 34.9430 58.2110
X 52.7108 34.9430 58.9110
X 52.7108 34.9430 59.6110
X 52.7108 34.9430 60.3110
X 52.7108 34.9430 61.0110
X 52.7108 34.9430 61.7110
X 52.7108 34.9430 62.4110
X 52.7108 34.9430 63.1110
X 52.7108 34.9430 63.8110
X 52.7108 34.9430 64.5110
X 53.4108 34.9430 45.6110
X 53.4108 34.9430 46.3110
X 53.4108 34.9430 47.0110
X 53.4108 34.9430 47.7110
X 53.4108 34.9430 48.4110
X 53.4108 34.9430 49.1110
X 53.4108 34.9430 49.8110
X 53.4108 34.9430 50.5110
X 53.4108 34.9430 51.2110
X 53.4108 34.9430 51.9110
X 53.4108 34.9430 52.6110
X 53.4108 34.9430 53.3110
X 53.4108 34.9430 54.0110
X 53.4108 34.9430 54.7110
X 53.4108 34.9430 55.4110
X 53.4108 34.9430 56.1110
X 53.4108 34.9430 57.5110
X 53.4108 34.9430 58.2110
X 53.4108 34.9430 58.9110
X 53.4108 34.9430 59.6110
X 53.4108 34.9430 60.3110
X 53.4108 34.9430 61.0110
X 53.4108 34.9430 61.7110
X 53.4108 34.9430 62.4110
X 53.4108 34.9430 63.1110
X 53.4108 34.9430 63.8110
X 53.4108 34.9430 64.5110
X 53.4108 34.9430 65.2110
X 54.1108 34.9430 45.6110
X 54.1108 34.9430 46.3110
X 54.1108 34.9430 47.0110
X 54.1108 34.9430 47.7110
X 54.1108 34.9430 48.4110
X 54.1108 34.9430 49.1110
X 54.1108 34.9430 49.8110
X 54.1108 34.9430 50.5110
X 54.1108 34.9430 51.2110
X 54.1108 34.9430 51.9110
X 54.1108 34.9430 52.6110
X 54.1108 34.9430 59.6110
X 54.1108 34.9430 60.3110
X 54.1108 34.9430 61.0110
X 54.1108 34.9430 61.7110
X 54.1108 34.9430 62.4110
X 54.1108 34.9430 63.1110
X 54.1108 34.9430 63.8110
X 54.1108 34.9430 64.5110
X 54.1108 34.9430 65.2110
X 54.8108 34.9430 44.9110
X 54.8108 34.9430 45.6110
X 54.8108 34.9430 46.3110
X 54.8108 34.9430 47.0110
X 54.8108 34.9430 47.7110
X 54.8108 34.9430 48.4110
X 54.8108 34.9430 49.1110
X 54.8108 34.9430 49.8110
X 54.8108 34.9430 50.5110
X 54.8108 34.9430 51.2110
X 54.8108 34.9430 60.3110
X 54.8108 34.9430 61.0110
X 54.8108 34.9430 61.7110
X 54.8108 34.9430 62.4110
X 54.8108 34.9430 63.1110
X 54.8108 34.9430 63.8110
X 54.8108 34.9430 64.5110
X 54.8108 34.9430 65.2110
X 55.5108 34.9430 44.9110
X 55.5108 34.9430 45.6110
X 55.5108 34.9430 46.3110
X 55.5108 34.9430 47.0110
X 55.5108 34.9430 47.7110
X 55.5108 34.9430 48.4110
X 55.5108 34.9430 49.1110
X 55.5108 34.9430 49.8110
X 55.5108 34.9430 50.5110
X 55.5108 34.9430 60.3110
X 55.5108 34.9430 61.0110
X 55.5108 34.9430 61.7110
X 55.5108 34.9430 62.4110
X 55.5108 34.9430 63.1110
X 55.5108 34.9430 63.8110
X 55.5108 34.9430 64.5110
X 55.5108 34.9430 65.2110
X 56.2108 34.9430 44.9110
X 56.2108 34.9430 45.6110
X 56.2108 34.9430 46.3110
X 56.2108 34.9430 47.0110
X 56.2108 34.9430 47.7110
X 56.2108 34.9430 48.4110
X 56.2108 34.9430 49.1110
X 56.2108 34.9430 49.8110
X 56.2108 34.9430 50.5110
X 56.2108 34.9430 61.0110
X 56.2108 34.9430 61.7110
X 56.2108 34.9430 62.4110
X 56.2108 34.9430 63.1110
X 56.2108 34.9430 63.8110
X 56.2108 34.9430 64.5110
X 56.2108 34.9430 65.2110
X 56.2108 34.9430 65.9110
X 56.9108 34.9430 44.9110
X 56.9108 34.9430 45.6110
X 56.9108 34.9430 46.3110
X 56.9108 34.9430 47.0110
X 56.9108 34.9430 47.7110
X 56.9108 34.9430 48.4110
X 56.9108 34.9430 49.1110
X 56.9108 34.9430 49.8110
X 56.9108 34.9430 61.0110
X 56.9108 34.9430 61.7110
X 56.9108 34.9430 62.4110
X 56.9108 34.9430 63.1110
X 56.9108 34.9430 63.8110
X 56.9108 34.9430 64.5110
X 56.9108 34.9430 65.2110
X 56.9108 34.9430 65.9110
X 57.6108 34.9430 44.9110
X 57.6108 34.9430 45.6110
X 57.6108 34.9430 46.3110
X 57.6108 34.9430 47.0110
X 57.6108 34.9430 47.7110
X 57.6108 34.9430 48.4110
X 57.6108 34.9430 49.1110
X 57.6108 34.9430 49.8110
X 57.6108 34.9430 61.0110
X 57.6108 34.9430 61.7110
X 57.6108 34.9430 62.4110
X 57.6108 34.9430 63.1110
X 57.6108 34.9430 63.8110
X 57.6108 34.9430 64.5110
X 57.6108 34.9430 65.2110
X 57.6108 34.9430 65.9110
X 58.3108 34.9430 44.9110
X 58.3108 34.9430 45.6110
X 58.3108 34.9430 46.3110
X 58.3108 34.9430 47.0110
X 58.3108 34.9430 47.7110
X 58.3108 34.9430 48.4110
X 58.3108 34.9430 49.1110
X 58.3108 34.9430 49.8110
X 58.3108 34.9430 61.0110
X 58.3108 34.9430 61.7110
X 58.3108 34.9430 62.4110
X 58.3108 34.9430 63.1110
X 58.3108 34.9430 63.8110
X 58.3108 34.9430 64.5110
X 58.3108 34.9430 65.2110
X 58.3108 34.9430 65.9110
X 59.0108 34.9430 44.2110
X 59.0108 34.9430 44.9110
X 59.0108 34.9430 45.6110
X 59.0108 34.9430 46.3110
X 59.0108 34.9430 47.0110
X 59.0108 34.9430 47.7110
X 59.0108 34.9430 48.4110
X 59.0108 34.9430 49.1110
X 59.0108 34.9430 49.8110
X 59.0108 34.9430 61.0110
X 59.0108 34.9430 61.7110
X 59.0108 34.9430 62.4110
X 59.0108 34.9430 63.1110
X 59.0108 34.9430 63.8110
X 59.0108 34.9430 64.5110
X 59.0108 34.9430 65.2110
X 59.0108 34.9430 65.9110
X 59.7108 34.9430 44.2110
X 59.7108 34.9430 44.9110
X 59.7108 34.9430 45.6110
X 59.7108 34.9430 46.3110
X 59.7108 34.9430 47.0110
X 59.7108 34.9430 47.7110
X 59.7108 34.9430 48.4110
X 59.7108 34.9430 49.1110
X 59.7108 34.9430 49.8110
X 59.7108 34.9430 61.0110
X 59.7108 34.9430 61.7110
X 59.7108 34.9430 62.4110
X 59.7108 34.9430 63.1110
X 59.7108 34.9430 63.8110
X 59.7108 34.9430 64.5110
X 59.7108 34.9430 65.2110
X 59.7108 34.9430 65.9110
X 60.4108 34.9430 44.2110
X 60.4108 34.9430 44.9110
X 60.4108 34.9430 45.6110
X 60.4108 34.9430 46.3110
X 60.4108 34.9430 47.0110
X 60.4108 34.9430 47.7110
X 60.4108 34.9430 48.4110
X 60.4108 34.9430 49.1110
X 60.4108 34.9430 49.8110
X 60.4108 34.9430 50.5110
X 60.4108 34.9430 61.0110
X 60.4108 34.9430 61.7110
X 60.4108 34.9430 62.4110
X 60.4108 34.9430 63.1110
X 60.4108 34.9430 63.8110
X 60.4108 34.9430 64.5110
X 60.4108 34.9430 65.2110
X 60.4108 34.9430 65.9110
X 61.1108 34.9430 44.9110
X 61.1108 34.9430 45.6110
X 61.1108 34.9430 46.3110
X 61.1108 34.9430 47.0110
X 61.1108 34.9430 47.7110
X 61.1108 34.9430 48.4110
X 61.1108 34.9430 49.1110
X 61.1108 34.9430 49.8110
X 61.1108 34.9430 50.5110
X 61.1108 34.9430 61.0110
X 61.1108 34.9430 61.7110
X 61.1108 34.9430 62.4110
X 61.1108 34.9430 63.1110
X 61.1108 34.9430 63.8110
X 61.1108 34.9430 64.5110
X 61.1108 34.9430 65.2110
X 61.1108 34.9430 65.9110
X 61.8108 34.9430 44.9110
X 61.8108 34.9430 45.6110
X 61.8108 34.9430 46.3110
X 61.8108 34.9430 47.0110
X 61.8108 34.9430 47.7110
X 61.8108 34.9430 48.4110
X 61.8108 34.9430 49.1110
X 61.8108 34.9430 49.8110
X 61.8108 34.9430 50.5110
X 61.8108 34.9430 61.0110
X 61.8108 34.9430 61.7110
X 61.8108 34.9430 62.4110
X 61.8108 34.9430 63.1110
X 61.8108 34.9430 63.8110
X 61.8108 34.9430 64.5110
X 61.8108 34.9430 65.2110
X 61.8108 34.9430 65.9110
X 62.5108 34.9430 44.9110
X 62.5108 34.9430 45.6110
X 62.5108 34.9430 46.3110
X 62.5108 34.9430 47.0110
X 62.5108 34.9430 47.7110
X 62.5108 34.9430 48.4110
X 62.5108 34.9430 49.1110
X 62.5108 34.9430 49.8110
X 62.5108 34.9430 50.5110
X 62.5108 34.9430 51.2110
X 62.5108 34.9430 60.3110
X 62.5108 34.9430 61.0110
X 62.5108 34.9430 61.7110
X 62.5108 34.9430 62.4110
X 62.5108 34.9430 63.1110
X 62.5108 34.9430 63.8110
X 62.5108 34.9430 64.5110
X 62.5108 34.9430 65.2110
X 62.5108 34.9430 65.9110
X 63.2108 34.9430 44.9110
X 63.2108 34.9430 45.6110
X 63.2108 34.9430 46.3110
X 63.2108 34.9430 47.0110
X 63.2108 34.9430 47.7110
X 63.2108 34.9430 48.4110
X 63.2108 34.9430 49.1110
X 63.2108 34.9430 49.8110
X 63.2108 34.9430 50.5110
X 63.2108 34.9430 51.2110
X 63.2108 34.9430 51.9110
X 63.2108 34.9430 59.6110
X 63.2108 34.9430 60.3110
X 63.2108 34.9430 61.0110
X 63.2108 34.9430 61.7110
X 63.2108 34.9430 62.4110
X 63.2108 34.9430 63.1110
X 63.2108 34.9430 63.8110
X 63.2108 34.9430 64.5110
X 63.2108 34.9430 65.2110
X 63.9108 34.9430 45.6110
X 63.9108 34.9430 46.3110
X 63.9108 34.9430 47.0110
X 63.9108 34.9430 47.7110
X 63.9108 34.9430 48.4110
X 63.9108 34.9430 49.1110
X 63.9108 34.9430 49.8110
X 63.9108 34.9430 50.5110
X 63.9108 34.9430 51.2110
X 63.9108 34.9430 51.9110
X 63.9108 34.9430 52.6110
X 63.9108 34.9430 53.3110
X 63.9108 34.9430 54.0110
X 63.9108 34.9430 54.7110
X 63.9108 34.9430 55.4110
X 63.9108 34.9430 56.1110
X 63.9108 34.9430 56.8110
X 63.9108 34.9430 57.5110
X 63.9108 34.9430 58.2110
X 63.9108 34.9430 58.9110
X 63.9108 34.9430 59.6110
X 63.9108 34.9430 60.3110
X 63.9108 34.9430 61.0110
X 63.9108 34.9430 61.7110
X 63.9108 34.9430 62.4110
X 63.9108 34.9430 63.1110
X 63.9108 34.9430 63.8110
X 63.9108 34.9430 64.5110
X 63.9108 34.9430 65.2110
X 64.6108 34.9430 45.6110
X 64.6108 34.9430 46.3110
X 64.6108 34.9430 47.0110
X 64.6108 34.9430 47.7110
X 64.6108 34.9430 48.4110
X 64.6108 34.9430 49.1110
X 64.6108 34.9430 49.8110
X 64.6108 34.9430 50.5110
X 64.6108 34.9430 51.2110
X 64.6108 34.9430 51.9110
X 64.6108 34.9430 52.6110
X 64.6108 34.9430 53.3110
X 64.6108 34.9430 54.0110
X 64.6108 34.9430 54.7110
X 64.6108 34.9430 55.4110
X 64.6108 34.9430 56.1110
X 64.6108 34.9430 56.8110
X 64.6108 34.9430 57.5110
X 64.6108 34.9430 58.2110
X 64.6108 34.9430 58.9110
X 64.6108 34.9430 59.6110
X 64.6108 34.9430 60.3110
X 64.6108 34.9430 61.0110
X 64.6108 34.9430 61.7110
X 64.6108 34.9430 62.4110
X 64.6108 34.9430 63.1110
X 64.6108 34.9430 63.8110
X 64.6108 34.9430 64.5110
X 64.6108 34.9430 65.2110
X 65.3108 34.9430 46.3110
X 65.3108 34.9430 47.0110
X 65.3108 34.9430 47.7110
X 65.3108 34.9430 48.4110
X 65.3108 34.9430 49.1110
X 65.3108 34.9430 49.8110
X 65.3108 34.9430 50.5110
X 65.3108 34.9430 51.2110
X 65.3108 34.9430 51.9110
X 65.3108 34.9430 52.6110
X 65.3108 34.9430 53.3110
X 65.3108 34.9430 54.0110
X 65.3108 34.9430 54.7110
X 65.3108 34.9430 55.4110
X 65.3108 34.9430 56.1110
X 65.3108 34.9430 56.8110
X 65.3108 34.9430 57.5110
X 65.3108 34.9430 58.2110
X 65.3108 34.9430 58.9110
X 65.3108 34.9430 59.6110
X 65.3108 34.9430 60.3110
X 65.3108 34.9430 61.0110
X 65.3108 34.9430 61.7110
X 65.3108 34.9430 62.4110
X 65.3108 34.9430 63.1110
X 65.3108 34.9430 63.8110
X 65.3108 34.9430 64.5110
X 66.0108 34.9430 46.3110
X 66.0108 34.9430 47.0110
X 66.0108 34.9430 47.7110
X 66.0108 34.9430 48.4110
X 66.0108 34.9430 49.1110
X 66.0108 34.9430 49.8110
X 66.0108 34.9430 50.5110
X 66.0108 34.9430 51.2110
X 66.0108 34.9430 51.9110
X 66.0108 34.9430 52.6110
X 66.0108 34.9430 53.3110
X 66.0108 34.9430 54.0110
X 66.0108 34.9430 54.7110
X 66.0108 34.9430 55.4110
X 66.0108 34.9430 56.1110
X 66.0108 34.9430 56.8110
X 66.0108 34.9430 57.5110
X 66.0108 34.9430 58.2110
X 66.0108 34.9430 58.9110
X 66.0108 34.9430 59.6110
X 66.0108 34.9430 60.3110
X 66.0108 34.9430 61.0110
X 66.0108 34.9430 61.7110
X 66.0108 34.9430 62.4110
X 66.0108 34.9430 63.1110
X 66.0108 34.9430 63.8110
X 66.7108 34.9430 47.0110
X 66.7108 34.9430 47.7110
X 66.7108 34.9430 48.4110
X 66.7108 34.9430 49.1110
X 66.7108 34.9430 49.8110
X 66.7108 34.9430 50.5110
X 66.7108 34.9430 51.2110
X 66.7108 34.9430 51.9110
X 66.7108 34.9430 52.6110
X 66.7108 34.9430 53.3110
X 66.7108 34.9430 54.0110
X 66.7108 34.9430 54.7110
X 66.7108 34.9430 55.4110
X 66.7108 34.9430 56.1110
X 66.7108 34.9430 56.8110
X 66.7108 34.9430 57.5110
X 66.7108 34.9430 58.2110
X 66.7108 34.9430 58.9110
X 66.7108 34.9430 59.6110
X 66.7108 34.9430 60.3110
X 66.7108 34.9430 61.0110
X 66.7108 34.9430 61.7110
X 66.7108 34.9430 62.4110
X 66.7108 34.9430 63.1110
X 66.7108 34.9430 63.8110
X 67.4108 34.9430 47.7110
X 67.4108 34.9430 48.4110
X 67.4108 34.9430 49.1110
X 67.4108 34.9430 49.8110
X 67.4108 34.9430 50.5110
X 67.4108 34.9430 51.2110
X 67.4108 34.9430 51.9110
X 67.4108 34.9430 52.6110
X 67.4108 34.9430 53.3110
X 67.4108 34.9430 54.0110
X 67.4108 34.9430 54.7110
X 67.4108 34.9430 55.4110
X 67.4108 34.9430 56.1110
X 67.4108 34.9430 56.8110
X 67.4108 34.9430 57.5110
X 67.4108 34.9430 58.2110
X 67.4108 34.9430 58.9110
X 67.4108 34.9430 59.6110
X 67.4108 34.9430 60.3110
X 67.4108 34.9430 61.0110
X 67.4108 34.9430 61.7110
X 67.4108 34.9430 62.4110
X 68.1108 34.9430 48.4110
X 68.1108 34.9430 49.1110
X 68.1108 34.9430 49.8110
X 68.1108 34.9430 50.5110
X 68.1108 34.9430 51.2110
X 68.1108 34.9430 51.9110
X 68.1108 34.9430 52.6110
X 68.1108 34.9430 53.3110
X 68.1108 34.9430 54.0110
X 68.1108 34.9430 54.7110
X 68.1108 34.9430 55.4110
X 68.1108 34.9430 56.1110
X 68.1108 34.9430 56.8110
X 68.1108 34.9430 57.5110
X 68.1108 34.9430 58.2110
X 68.1108 34.9430 58.9110
X 68.1108 34.9430 59.6110
X 68.1108 34.9430 60.3110
X 68.1108 34.9430 61.0110
X 68.1108 34.9430 61.7110
X 68.8108 34.9430 49.1110
X 68.8108 34.9430 49.8110
X 68.8108 34.9430 50.5110
X 68.8108 34.9430 51.2110
X 68.8108 34.9430 51.9110
X 68.8108 34.9430 52.6110
X 68.8108 34.9430 53.3110
X 68.8108 34.9430 54.0110
X 68.8108 34.9430 54.7110
X 68.8108 34.9430 55.4110
X 68.8108 34.9430 56.1110
X 68.8108 34.9430 56.8110
X 68.8108 34.9430 57.5110
X 68.8108 34.9430 58.2110
X 68.8108 34.9430 58.9110
X 68.8108 34.9430 59.6110
X 68.8108 34.9430 60.3110
X 69.5108 34.9430 50.5110
X 69.5108 34.9430 51.2110
X 69.5108 34.9430 51.9110
X 69.5108 34.9430 52.6110
X 69.5108 34.9430 53.3110
X 69.5108 34.9430 54.0110
X 69.5108 34.9430 54.7110
X 69.5108 34.9430 55.4110
X 69.5108 34.9430 56.1110
X 69.5108 34.9430 56.8110
X 69.5108 34.9430 57.5110
X 69.5108 34.9430 58.2110
X 69.5108 34.9430 58.9110
X 47.1108 35.6430 54.0110
X 47.1108 35.6430 54.7110
X 47.1108 35.6430 55.4110
X 47.1108 35.6430 56.1110
X 47.8108 35.6430 51.9110
X 47.8108 35.6430 52.6110
X 47.8108 35.6430 53.3110
X 47.8108 35.6430 54.0110
X 47.8108 35.6430 54.7110
X 47.8108 35.6430 55.4110
X 47.8108 35.6430 56.1110
X 47.8108 35.6430 56.8110
X 47.8108 35.6430 57.5110
X 47.8108 35.6430 58.2110
X 48.5108 35.6430 50.5110
X 48.5108 35.6430 51.2110
X 48.5108 35.6430 51.9110
X 48.5108 35.6430 52.6110
X 48.5108 35.6430 53.3110
X 48.5108 35.6430 54.0110
X 48.5108 35.6430 54.7110
X 48.5108 35.6430 55.4110
X 48.5108 35.6430 56.1110
X 48.5108 35.6430 56.8110
X 48.5108 35.6430 57.5110
X 48.5108 35.6430 58.2110
X 48.5108 35.6430 58.9110
X 48.5108 35.6430 59.6110
X 48.5108 35.6430 60.3110
X 49.2108 35.6430 49.8110
X 49.2108 35.6430 50.5110
X 49.2108 35.6430 51.2110
X 49.2108 35.6430 51.9110
X 49.2108 35.6430 52.6110
X 49.2108 35.6430 53.3110
X 49.2108 35.6430 54.0110
X 49.2108 35.6430 54.7110
X 49.2108 35.6430 55.4110
X 49.2108 35.6430 56.1110
X 49.2108 35.6430 56.8110
X 49.2108 35.6430 57.5110
X 49.2108 35.6430 58.2110
X 49.2108 35.6430 58.9110
X 49.2108 35.6430 59.6110
X 49.2108 35.6430 60.3110
X 49.2108 35.6430 61.0110
X 49.2108 35.6430 61.7110
X 49.9108 35.6430 48.4110
X 49.9108 35.6430 49.1110
X 49.9108 35.6430 49.8110
X 49.9108 35.6430 50.5110
X 49.9108 35.6430 51.2110
X 49.9108 35.6430 51.9110
X 49.9108 35.6430 52.6110
X 49.9108 35.6430 53.3110
X 49.9108 35.6430 54.0110
X 49.9108 35.6430 54.7110
X 49.9108 35.6430 55.4110
X 49.9108 35.6430 56.1110
X 49.9108 35.6430 56.8110
X 49.9108 35.6430 57.5110
X 49.9108 35.6430 58.2110
X 49.9108 35.6430 58.9110
X 49.9108 35.6430 59.6110
X 49.9108 35.6430 60.3110
X 49.9108 35.6430 61.0110
X 49.9108 35.6430 61.7110
X 49.9108 35.6430 62.4110
X 50.6108 35.6430 47.7110
X 50.6108 35.6430 48.4110
X 50.6108 35.6430 49.1110
X 50.6108 35.6430 49.8110
X 50.6108 35.6430 50.5110
X 50.6108 35.6430 51.2110
X 50.6108 35.6430 51.9110
X 50.6108 35.6430 52.6110
X 50.6108 35.6430 53.3110
X 50.6108 35.6430 54.0110
X 50.6108 35.6430 54.7110
X 50.6108 35.6430 55.4110
X 50.6108 35.6430 56.1110
X 50.6108 35.6430 56.8110
X 50.6108 35.6430 57.5110
X 50.6108 35.6430 58.2110
X 50.6108 35.6430 58.9110
X 50.6108 35.6430 59.6110
X 50.6108 35.6430 60.3110
X 50.6108 35.6430 61.0110
X 50.6108 35.6430 61.7110
X 50.6108 35.6430 62.4110
X 50.6108 35.6430 63.1110
X 51.3108 35.6430 47.0110
X 51.3108 35.6430 47.7110
X 51.3108 35.6430 48.4110
X 51.3108 35.6430 49.1110
X 51.3108 35.6430 49.8110
X 51.3108 35.6430 50.5110
X 51.3108 35.6430 51.2110
X 51.3108 35.6430 51.9110
X 51.3108 35.6430 52.6110
X 51.3108 35.6430 53.3110
X 51.3108 35.6430 54.0110
X 51.3108 35.6430 54.7110
X 51.3108 35.6430 55.4110
X 51.3108 35.6430 56.1110
X 51.3108 35.6430 56.8110
X 51.3108 35.6430 57.5110
X 51.3108 35.6430 58.2110
X 51.3108 35.6430 58.9110
X 51.3108 35.6430 59.6110
X 51.3108 35.6430 60.3110
X 51.3108 35.6430 61.0110
X 51.3108 35.6430 61.7110
X 51.3108 35.6430 62.4110
X 51.3108 35.6430 63.1110
X 51.3108 35.6430 63.8110
X 52.0108 35.6430 46.3110
X 52.0108 35.6430 47.0110
X 52.0108 35.6430 47.7110
X 52.0108 35.6430 48.4110
X 52.0108 35.6430 49.1110
X 52.0108 35.6430 49.8110
X 52.0108 35.6430 50.5110
X 52.0108 35.6430 51.2110
X 52.0108 35.6430 51.9110
X 52.0108 35.6430 52.6110
X 52.0108 35.6430 53.3110
X 52.0108 35.6430 54.0110
X 52.0108 35.6430 54.7110
X 52.0108 35.6430 55.4110
X 52.0108 35.6430 56.1110
X 52.0108 35.6430 56.8110
X 52.0108 35.6430 57.5110
X 52.0108 35.6430 58.2110
X 52.0108 35.6430 58.9110
X 52.0108 35.6430 59.6110
X 52.0108 35.6430 60.3110
X 52.0108 35.6430 61.0110
X 52.0108 35.6430 61.7110
X 52.0108 35.6430 62.4110
X 52.0108 35.6430 63.1110
X 52.0108 35.6430 63.8110
X 52.0108 35.6430 64.5110
X 52.7108 35.6430 46.3110
X 52.7108 35.6430 47.0110
X 52.7108 35.6430 47.7110
X 52.7108 35.6430 48.4110
X 52.7108 35.6430 49.1110
X 52.7108 35.6430 49.8110
X 52.7108 35.6430 50.5110
X 52.7108 35.6430 51.2110
X 52.7108 35.6430 51.9110
X 52.7108 35.6430 52.6110
X 52.7108 35.6430 53.3110
X 52.7108 35.6430 54.0110
X 52.7108 35.6430 54.7110
X 52.7108 35.6430 55.4110
X 52.7108 35.6430 56.1110
X 52.7108 35.6430 56.8110
X 52.7108 35.6430 57.5110
X 52.7108 35.6430 58.2110
X 52.7108 35.6430 58.9110
X 52.7108 35.6430 59.6110
X 52.7108 35.6430 60.3110
X 52.7108 35.6430 61.0110
X 52.7108 35.6430 61.7110
X 52.7108 35.6430 62.4110
X 52.7108 35.6430 63.1110
X 52.7108 35.6430 63.8110
X 52.7108 35.6430 64.5110
X 53.4108 35.6430 45.6110
X 53.4108 35.6430 46.3110
X 53.4108 35.6430 47.0110
X 53.4108 35.6430 47.7110
X 53.4108 35.6430 48.4110
X 53.4108 35.6430 49.1110
X 53.4108 35.6430 49.8110
X 53.4108 35.6430 50.5110
X 53.4108 35.6430 51.2110
X 53.4108 35.6430 51.9110
X 53.4108 35.6430 52.6110
X 53.4108 35.6430 53.3110
X 53.4108 35.6430 54.0110
X 53.4108 35.6430 54.7110
X 53.4108 35.6430 55.4110
X 53.4108 35.6430 58.2110
X 53.4108 35.6430 58.9110
X 53.4108 35.6430 59.6110
X 53.4108 35.6430 60.3110
X 53.4108 35.6430 61.0110
X 53.4108 35.6430 61.7110
X 53.4108 35.6430 62.4110
X 53.4108 35.6430 63.1110
X 53.4108 35.6430 63.8110
X 53.4108 35.6430 64.5110
X 53.4108 35.6430 65.2110
X 54.1108 35.6430 45.6110
X 54.1108 35.6430 46.3110
X 54.1108 35.6430 47.0110
X 54.1108 35.6430 47.7110
X 54.1108 35.6430 48.4110
X 54.1108 35.6430 49.1110
X 54.1108 35.6430 49.8110
X 54.1108 35.6430 50.5110
X 54.1108 35.6430 51.2110
X 54.1108 35.6430 51.9110
X 54.1108 35.6430 52.6110
X 54.1108 35.6430 53.3110
X 54.1108 35.6430 59.6110
X 54.1108 35.6430 60.3110
X 54.1108 35.6430 61.0110
X 54.1108 35.6430 61.7110
X 54.1108 35.6430 62.4110
X 54.1108 35.6430 63.1110
X 54.1108 35.6430 63.8110
X 54.1108 35.6430 64.5110
X 54.1108 35.6430 65.2110
X 54.8108 35.6430 44.9110
X 54.8108 35.6430 45.6110
X 54.8108 35.6430 46.3110
X 54.8108 35.6430 47.0110
X 54.8108 35.6430 47.7110
X 54.8108 35.6430 48.4110
X 54.8108 35.6430 49.1110
X 54.8108 35.6430 49.8110
X 54.8108 35.6430 50.5110
X 54.8108 35.6430 51.2110
X 54.8108 35.6430 51.9110
X 54.8108 35.6430 60.3110
X 54.8108 35.6430 61.0110
X 54.8108 35.6430 61.7110
X 54.8108 35.6430 62.4110
X 54.8108 35.6430 63.1110
X 54.8108 35.6430 63.8110
X 54.8108 35.6430 64.5110
X 54.8108 35.6430 65.2110
X 55.5108 35.6430 44.9110
X 55.5108 35.6430 45.6110
X 55.5108 35.6430 46.3110
X 55.5108 35.6430 47.0110
X 55.5108 35.6430 47.7110
X 55.5108 35.6430 48.4110
X 55.5108 35.6430 49.1110
X 55.5108 35.6430 49.8110
X 55.5108 35.6430 50.5110
X 55.5108 35.6430 51.2110
X 55.5108 35.6430 61.0110
X 55.5108 35.6430 61.7110
X 55.5108 35.6430 62.4110
X 55.5108 35.6430 63.1110
X 55.5108 35.6430 63.8110
X 55.5108 35.6430 64.5110
X 55.5108 35.6430 65.2110
X 56.2108 35.6430 44.9110
X 56.2108 35.6430 45.6110
X 56.2108 35.6430 46.3110
X 56.2108 35.6430 47.0110
X 56.2108 35.6430 47.7110
X 56.2108 35.6430 48.4110
X 56.2108 35.6430 49.1110
X 56.2108 35.6430 49.8110
X 56.2108 35.6430 50.5110
X 56.2108 35.6430 61.0110
X 56.2108 35.6430 61.7110
X 56.2108 35.6430 62.4110
X 56.2108 35.6430 63.1110
X 56.2108 35.6430 63.8110
X 56.2108 35.6430 64.5110
X 56.2108 35.6430 65.2110
X 56.2108 35.6430 65.9110
X 56.9108 35.6430 44.9110
X 56.9108 35.6430 45.6110
X 56.9108 35.6430 46.3110
X 56.9108 35.6430 47.0110
X 56.9108 35.6430 47.7110
X 56.9108 35.6430 48.4110
X 56.9108 35.6430 49.1110
X 56.9108 35.6430 49.8110
X 56.9108 35.6430 50.5110
X 56.9108 35.6430 61.0110
X 56.9108 35.6430 61.7110
X 56.9108 35.6430 62.4110
X 56.9108 35.6430 63.1110
X 56.9108 35.6430 63.8110
X 56.9108 35.6430 64.5110
X 56.9108 35.6430 65.2110
X 56.9108 35.6430 65.9110
X 57.6108 35.6430 44.9110
X 57.6108 35.6430 45.6110
X 57.6108 35.6430 46.3110
X 57.6108 35.6430 47.0110
X 57.6108 35.6430 47.7110
X 57.6108 35.6430 48.4110
X 57.6108 35.6430 49.1110
X 57.6108 35.6430 49.8110
X 57.6108 35.6430 50.5110
X 57.6108 35.6430 61.0110
X 57.6108 35.6430 61.7110
X 57.6108 35.6430 62.4110
X 57.6108 35.6430 63.1110
X 57.6108 35.6430 63.8110
X 57.6108 35.6430 64.5110
X 57.6108 35.6430 65.2110
X 57.6108 35.6430 65.9110
X 58.3108 35.6430 44.9110
X 58.3108 35.6430 45.6110
X 58.3108 35.6430 46.3110
X 58.3108 35.6430 47.0110
X 58.3108 35.6430 47.7110
X 58.3108 35.6430 48.4110
X 58.3108 35.6430 49.1110
X 58.3108 35.6430 49.8110
X 58.3108 35.6430 50.5110
X 58.3108 35.6430 61.0110
X 58.3108 35.6430 61.7110
X 58.3108 35.6430 62.4110
X 58.3108 35.6430 63.1110
X 58.3108 35.6430 63.8110
X 58.3108 35.6430 64.5110
X 58.3108 35.6430 65.2110
X 58.3108 35.6430 65.9110
X 59.0108 35.6430 44.9110
X 59.0108 35.6430 45.6110
X 59.0108 35.6430 46.3110
X 59.0108 35.6430 47.0110
X 59.0108 35.6430 47.7110
X 59.0108 35.6430 48.4110
X 59.0108 35.6430 49.1110
X 59.0108 35.6430 49.8110
X 59.0108 35.6430 50.5110
X 59.0108 35.6430 61.0110
X 59.0108 35.6430 61.7110
X 59.0108 35.6430 62.4110
X 59.0108 35.6430 63.1110
X 59.0108 35.6430 63.8110
X 59.0108 35.6430 64.5110
X 59.0108 35.6430 65.2110
X 59.0108 35.6430 65.9110
X 59.7108 35.6430 44.9110
X 59.7108 35.6430 45.6110
X 59.7108 35.6430 46.3110
X 59.7108 35.6430 47.0110
X 59.7108 35.6430 47.7110
X 59.7108 35.6430 48.4110
X 59.7108 35.6430 49.1110
X 59.7108 35.6430 49.8110
X 59.7108 35.6430 50.5110
X 59.7108 35.6430 61.0110
X 59.7108 35.6430 61.7110
X 59.7108 35.6430 62.4110
X 59.7108 35.6430 63.1110
X 59.7108 35.6430 63.8110
X 59.7108 35.6430 64.5110
X 59.7108 35.6430 65.2110
X 59.7108 35.6430 65.9110
X 60.4108 35.6430 44.9110
X 60.4108 35.6430 45.6110
X 60.4108 35.6430 46.3110
X 60.4108 35.6430 47.0110
X 60.4108 35.6430 47.7110
X 60.4108 35.6430 48.4110
X 60.4108 35.6430 49.1110
X 60.4108 35.6430 49.8110
X 60.4108 35.6430 50.5110
X 60.4108 35.6430 61.0110
X 60.4108 35.6430 61.7110
X 60.4108 35.6430 62.4110
X 60.4108 35.6430 63.1110
X 60.4108 35.6430 63.8110
X 60.4108 35.6430 64.5110
X 60.4108 35.6430 65.2110
X 60.4108 35.6430 65.9110
X 61.1108 35.6430 44.9110
X 61.1108 35.6430 45.6110
X 61.1108 35.6430 46.3110
X 61.1108 35.6430 47.0110
X 61.1108 35.6430 47.7110
X 61.1108 35.6430 48.4110
X 61.1108 35.6430 49.1110
X 61.1108 35.6430 49.8110
X 61.1108 35.6430 50.5110
X 61.1108 35.6430 51.2110
X 61.1108 35.6430 61.0110
X 61.1108 35.6430 61.7110
X 61.1108 35.6430 62.4110
X 61.1108 35.6430 63.1110
X 61.1108 35.6430 63.8110
X 61.1108 35.6430 64.5110
X 61.1108 35.6430 65.2110
X 61.1108 35.6430 65.9110
X 61.8108 35.6430 44.9110
X 61.8108 35.6430 45.6110
X 61.8108 35.6430 46.3110
X 61.8108 35.6430 47.0110
X 61.8108 35.6430 47.7110
X 61.8108 35.6430 48.4110
X 61.8108 35.6430 49.1110
X 61.8108 35.6430 49.8110
X 61.8108 35.6430 50.5110
X 61.8108 35.6430 51.2110
X 61.8108 35.6430 51.9110
X 61.8108 35.6430 61.0110
X 61.8108 35.6430 61.7110
X 61.8108 35.6430 62.4110
X 61.8108 35.6430 63.1110
X 61.8108 35.6430 63.8110
X 61.8108 35.6430 64.5110
X 61.8108 35.6430 65.2110
X 61.8108 35.6430 65.9110
X 62.5108 35.6430 44.9110
X 62.5108 35.6430 45.6110
X 62.5108 35.6430 46.3110
X 62.5108 35.6430 47.0110
X 62.5108 35.6430 47.7110
X 62.5108 35.6430 48.4110
X 62.5108 35.6430 49.1110
X 62.5108 35.6430 49.8110
X 62.5108 35.6430 50.5110
X 62.5108 35.6430 51.2110
X 62.5108 35.6430 51.9110
X 62.5108 35.6430 52.6110
X 62.5108 35.6430 53.3110
X 62.5108 35.6430 54.0110
X 62.5108 35.6430 60.3110
X 62.5108 35.6430 61.0110
X 62.5108 35.6430 61.7110
X 62.5108 35.6430 62.4110
X 62.5108 35.6430 63.1110
X 62.5108 35.6430 63.8110
X 62.5108 35.6430 64.5110
X 62.5108 35.6430 65.2110
X 63.2108 35.6430 45.6110
X 63.2108 35.6430 46.3110
X 63.2108 35.6430 47.0110
X 63.2108 35.6430 47.7110
X 63.2108 35.6430 48.4110
X 63.2108 35.6430 49.1110
X 63.2108 35.6430 49.8110
X 63.2108 35.6430 50.5110
X 63.2108 35.6430 51.2110
X 63.2108 35.6430 51.9110
X 63.2108 35.6430 52.6110
X 63.2108 35.6430 53.3110
X 63.2108 35.6430 54.0110
X 63.2108 35.6430 54.7110
X 63.2108 35.6430 59.6110
X 63.2108 35.6430 60.3110
X 63.2108 35.6430 61.0110
X 63.2108 35.6430 61.7110
X 63.2108 35.6430 62.4110
X 63.2108 35.6430 63.1110
X 63.2108 35.6430 63.8110
X 63.2108 35.6430 64.5110
X 63.2108 35.6430 65.2110
X 63.9108 35.6430 45.6110
X 63.9108 35.6430 46.3110
X 63.9108 35.6430 47.0110
X 63.9108 35.6430 47.7110
X 63.9108 35.6430 48.4110
X 63.9108 35.6430 49.1110
X 63.9108 35.6430 49.8110
X 63.9108 35.6430 50.5110
X 63.9108 35.6430 51.2110
X 63.9108 35.6430 51.9110
X 63.9108 35.6430 52.6110
X 63.9108 35.6430 53.3110
X 63.9108 35.6430 54.0110
X 63.9108 35.6430 54.7110
X 63.9108 35.6430 55.4110
X 63.9108 35.6430 56.1110
X 63.9108 35.6430 56.8110
X 63.9108 35.6430 57.5110
X 63.9108 35.6430 58.2110
X 63.9108 35.6430 58.9110
X 63.9108 35.6430 59.6110
X 63.9108 35.6430 60.3110
X 63.9108 35.6430 61.0110
X 63.9108 35.6430 61.7110
X 63.9108 35.6430 62.4110
X 63.9108 35.6430 63.1110
X 63.9108 35.6430 63.8110
X 63.9108 35.6430 64.5110
X 63.9108 35.6430 65.2110
X 64.6108 35.6430 46.3110
X 64.6108 35.6430 47.0110
X 64.6108 35.6430 47.7110
X 64.6108 35.6430 48.4110
X 64.6108 35.6430 49.1110
X 64.6108 35.6430 49.8110
X 64.6108 35.6430 50.5110
X 64.6108 35.6430 51.2110
X 64.6108 35.6430 51.9110
X 64.6108 35.6430 52.6110
X 64.6108 35.6430 53.3110
X 64.6108 35.6430 54.0110
X 64.6108 35.6430 54.7110
X 64.6108 35.6430 55.4110
X 64.6108 35.6430 56.1110
X 64.6108 35.6430 56.8110
X 64.6108 35.6430 57.5110
X 64.6108 35.6430 58.2110
X 64.6108 35.6430 58.9110
X 64.6108 35.6430 59.6110
X 64.6108 35.6430 60.3110
X 64.6108 35.6430 61.0110
X 64.6108 35.6430 61.7110
X 64.6108 35.6430 62.4110
X 64.6108 35.6430 63.1110
X 64.6108 35.6430 63.8110
X 64.6108 35.6430 64.5110
X 65.3108 35.6430 46.3110
X 65.3108 35.6430 47.0110
X 65.3108 35.6430 47.7110
X 65.3108 35.6430 48.4110
X 65.3108 35.6430 49.1110
X 65.3108 35.6430 49.8110
X 65.3108 35.6430 50.5110
X 65.3108 35.6430 51.2110
X 65.3108 35.6430 51.9110
X 65.3108 35.6430 52.6110
X 65.3108 35.6430 53.3110
X 65.3108 35.6430 54.0110
X 65.3108 35.6430 54.7110
X 65.3108 35.6430 55.4110
X 65.3108 35.6430 56.1110
X 65.3108 35.6430 56.8110
X 65.3108 35.6430 57.5110
X 65.3108 35.6430 58.2110
X 65.3108 35.6430 58.9110
X 65.3108 35.6430 59.6110
X 65.3108 35.6430 60.3110
X 65.3108 35.6430 61.0110
X 65.3108 35.6430 61.7110
X 65.3108 35.6430 62.4110
X 65.3108 35.6430 63.1110
X 65.3108 35.6430 63.8110
X 65.3108 35.6430 64.5110
X 66.0108 35.6430 47.0110
X 66.0108 35.6430 47.7110
X 66.0108 35.6430 48.4110
X 66.0108 35.6430 49.1110
X 66.0108 35.6430 49.8110
X 66.0108 35.6430 50.5110
X 66.0108 35.6430 51.2110
X 66.0108 35.6430 51.9110
X 66.0108 35.6430 52.6110
X 66.0108 35.6430 53.3110
X 66.0108 35.6430 54.0110
X 66.0108 35.6430 54.7110
X 66.0108 35.6430 55.4110
X 66.0108 35.6430 56.1110
X 66.0108 35.6430 56.8110
X 66.0108 35.6430 57.5110
X 66.0108 35.6430 58.2110
X 66.0108 35.6430 58.9110
X 66.0108 35.6430 59.6110
X 66.0108 35.6430 60.3110
X 66.0108 35.6430 61.0110
X 66.0108 35.6430 61.7110
X 66.0108 35.6430 62.4110
X 66.0108 35.6430 63.1110
X 66.0108 35.6430 63.8110
X 66.7108 35.6430 47.0110
X 66.7108 35.6430 47.7110
X 66.7108 35.6430 48.4110
X 66.7108 35.6430 49.1110
X 66.7108 35.6430 49.8110
X 66.7108 35.6430 50.5110
X 66.7108 35.6430 51.2110
X 66.7108 35.6430 51.9110
X 66.7108 35.6430 52.6110
X 66.7108 35.6430 53.3110
X 66.7108 35.6430 54.0110
X 66.7108 35.6430 54.7110
X 66.7108 35.6430 55.4110
X 66.7108 35.6430 56.1110
X 66.7108 35.6430 56.8110
X 66.7108 35.6430 57.5110
X 66.7108 35.6430 58.2110
X 66.7108 35.6430 58.9110
X 66.7108 35.6430 59.6110
X 66.7108 35.6430 60.3110
X 66.7108 35.6430 61.0110
X 66.7108 35.6430 61.7110
X 66.7108 35.6430 62.4110
X 66.7108 35.6430 63.1110
X 67.4108 35.6430 47.7110
X 67.4108 35.6430 48.4110
X 67.4108 35.6430 49.1110
X 67.4108 35.6430 49.8110
X 67.4108 35.6430 50.5110
X 67.4108 35.6430 51.2110
X 67.4108 35.6430 51.9110
X 67.4108 35.6430 52.6110
X 67.4108 35.6430 53.3110
X 67.4108 35.6430 54.0110
X 67.4108 35.6430 54.7110
X 67.4108 35.6430 55.4110
X 67.4108 35.6430 56.1110
X 67.4108 35.6430 56.8110
X 67.4108 35.6430 57.5110
X 67.4108 35.6430 58.2110
X 67.4108 35.6430 58.9110
X 67.4108 35.6430 59.6110
X 67.4108 35.6430 60.3110
X 67.4108 35.6430 61.0110
X 67.4108 35.6430 61.7110
X 67.4108 35.6430 62.4110
X 68.1108 35.6430 48.4110
X 68.1108 35.6430 49.1110
X 68.1108 35.6430 49.8110
X 68.1108 35.6430 50.5110
X 68.1108 35.6430 51.2110
X 68.1108 35.6430 51.9110
X 68.1108 35.6430 52.6110
X 68.1108 35.6430 53.3110
X 68.1108 35.6430 54.0110
X 68.1108 35.6430 54.7110
X 68.1108 35.6430 55.4110
X 68.1108 35.6430 56.1110
X 68.1108 35.6430 56.8110
X 68.1108 35.6430 57.5110
X 68.1108 35.6430 58.2110
X 68.1108 35.6430 58.9110
X 68.1108 35.6430 59.6110
X 68.1108 35.6430 60.3110
X 68.1108 35.6430 61.0110
X 68.1108 35.6430 61.7110
X 68.8108 35.6430 49.8110
X 68.8108 35.6430 50.5110
X 68.8108 35.6430 51.2110
X 68.8108 35.6430 51.9110
X 68.8108 35.6430 52.6110
X 68.8108 35.6430 53.3110
X 68.8108 35.6430 54.0110
X 68.8108 35.6430 54.7110
X 68.8108 35.6430 55.4110
X 68.8108 35.6430 56.1110
X 68.8108 35.6430 56.8110
X 68.8108 35.6430 57.5110
X 68.8108 35.6430 58.2110
X 68.8108 35.6430 58.9110
X 68.8108 35.6430 59.6110
X 68.8108 35.6430 60.3110
X 69.5108 35.6430 51.2110
X 69.5108 35.6430 51.9110
X 69.5108 35.6430 52.6110
X 69.5108 35.6430 53.3110
X 69.5108 35.6430 54.0110
X 69.5108 35.6430 54.7110
X 69.5108 35.6430 55.4110
X 69.5108 35.6430 56.1110
X 69.5108 35.6430 56.8110
X 69.5108 35.6430 57.5110
X 69.5108 35.6430 58.2110
X 69.5108 35.6430 58.9110
X 47.8108 36.3430 52.6110
X 47.8108 36.3430 53.3110
X 47.8108 36.3430 54.0110
X 47.8108 36.3430 54.7110
X 47.8108 36.3430 55.4110
X 47.8108 36.3430 56.1110
X 47.8108 36.3430 56.8110
X 47.8108 36.3430 57.5110
X 48.5108 36.3430 51.2110
X 48.5108 36.3430 51.9110
X 48.5108 36.3430 52.6110
X 48.5108 36.3430 53.3110
X 48.5108 36.3430 54.0110
X 48.5108 36.3430 54.7110
X 48.5108 36.3430 55.4110
X 48.5108 36.3430 56.1110
X 48.5108 36.3430 56.8110
X 48.5108 36.3430 57.5110
X 48.5108 36.3430 58.2110
X 48.5108 36.3430 58.9110
X 48.5108 36.3430 59.6110
X 48.5108 36.3430 60.3110
X 49.2108 36.3430 50.5110
X 49.2108 36.3430 51.2110
X 49.2108 36.3430 51.9110
X 49.2108 36.3430 52.6110
X 49.2108 36.3430 53.3110
X 49.2108 36.3430 54.0110
X 49.2108 36.3430 54.7110
X 49.2108 36.3430 55.4110
X 49.2108 36.3430 56.1110
X 49.2108 36.3430 56.8110
X 49.2108 36.3430 57.5110
X 49.2108 36.3430 58.2110
X 49.2108 36.3430 58.9110
X 49.2108 36.3430 59.6110
X 49.2108 36.3430 60.3110
X 49.2108 36.3430 61.0110
X 49.2108 36.3430 61.7110
X 49.9108 36.3430 49.1110
X 49.9108 36.3430 49.8110
X 49.9108 36.3430 50.5110
X 49.9108 36.3430 51.2110
X 49.9108 36.3430 51.9110
X 49.9108 36.3430 52.6110
X 49.9108 36.3430 53.3110
X 49.9108 36.3430 54.0110
X 49.9108 36.3430 54.7110
X 49.9108 36.3430 55.4110
X 49.9108 36.3430 56.1110
X 49.9108 36.3430 56.8110
X 49.9108 36.3430 57.5110
X 49.9108 36.3430 58.2110
X 49.9108 36.3430 58.9110
X 49.9108 36.3430 59.6110
X 49.9108 36.3430 60.3110
X 49.9108 36.3430 61.0110
X 49.9108 36.3430 61.7110
X 49.9108 36.3430 62.4110
X 50.6108 36.3430 47.7110
X 50.6108 36.3430 48.4110
X 50.6108 36.3430 49.1110
X 50.6108 36.3430 49.8110
X 50.6108 36.3430 50.5110
X 50.6108 36.3430 51.2110
X 50.6108 36.3430 51.9110
X 50.6108 36.3430 52.6110
X 50.6108 36.3430 53.3110
X 50.6108 36.3430 54.0110
X 50.6108 36.3430 54.7110
X 50.6108 36.3430 55.4110
X 50.6108 36.3430 56.1110
X 50.6108 36.3430 56.8110
X 50.6108 36.3430 57.5110
X 50.6108 36.3430 58.2110
X 50.6108 36.3430 58.9110
X 50.6108 36.3430 59.6110
X 50.6108 36.3430 60.3110
X 50.6108 36.3430 61.0110
X 50.6108 36.3430 61.7110
X 50.6108 36.3430 62.4110
X 50.6108 36.3430 63.1110
X 51.3108 36.3430 47.0110
X 51.3108 36.3430 47.7110
X 51.3108 36.3430 48.4110
X 51.3108 36.3430 49.1110
X 51.3108 36.3430 49.8110
X 51.3108 36.3430 50.5110
X 51.3108 36.3430 51.2110
X 51.3108 36.3430 51.9110
X 51.3108 36.3430 52.6110
X 51.3108 36.3430 53.3110
X 51.3108 36.3430 54.0110
X 51.3108 36.3430 54.7110
X 51.3108 36.3430 55.4110
X 51.3108 36.3430 56.1110
X 51.3108 36.3430 56.8110
X 51.3108 36.3430 57.5110
X 51.3108 36.3430 58.2110
X 51.3108 36.3430 58.9110
X 51.3108 36.3430 59.6110
X 51.3108 36.3430 60.3110
X 51.3108 36.3430 61.0110
X 51.3108 36.3430 61.7110
X 51.3108 36.3430 62.4110
X 51.3108 36.3430 63.1110
X 51.3108 36.3430 63.8110
X 52.0108 36.3430 46.3110
X 52.0108 36.3430 47.0110
X 52.0108 36.3430 47.7110
X 52.0108 36.3430 48.4110
X 52.0108 36.3430 49.1110
X 52.0108 36.3430 49.8110
X 52.0108 36.3430 50.5110
X 52.0108 36.3430 51.2110
X 52.0108 36.3430 51.9110
X 52.0108 36.3430 52.6110
X 52.0108 36.3430 53.3110
X 52.0108 36.3430 54.0110
X 52.0108 36.3430 54.7110
X 52.0108 36.3430 55.4110
X 52.0108 36.3430 56.1110
X 52.0108 36.3430 56.8110
X 52.0108 36.3430 57.5110
X 52.0108 36.3430 58.2110
X 52.0108 36.3430 58.9110
X 52.0108 36.3430 59.6110
X 52.0108 36.3430 60.3110
X 52.0108 36.3430 61.0110
X 52.0108 36.3430 61.7110
X 52.0108 36.3430 62.4110
X 52.0108 36.3430 63.1110
X 52.0108 36.3430 63.8110
X 52.0108 36.3430 64.5110
X 52.7108 36.3430 46.3110
X 52.7108 36.3430 47.0110
X 52.7108 36.3430 47.7110
X 52.7108 36.3430 48.4110
X 52.7108 36.3430 49.1110
X 52.7108 36.3430 49.8110
X 52.7108 36.3430 50.5110
X 52.7108 36.3430 51.2110
X 52.7108 36.3430 51.9110
X 52.7108 36.3430 52.6110
X 52.7108 36.3430 53.3110
X 52.7108 36.3430 54.0110
X 52.7108 36.3430 54.7110
X 52.7108 36.3430 55.4110
X 52.7108 36.3430 56.1110
X 52.7108 36.3430 56.8110
X 52.7108 36.3430 57.5110
X 52.7108 36.3430 58.2110
X 52.7108 36.3430 58.9110
X 52.7108 36.3430 59.6110
X 52.7108 36.3430 60.3110
X 52.7108 36.3430 61.0110
X 52.7108 36.3430 61.7110
X 52.7108 36.3430 62.4110
X 52.7108 36.3430 63.1110
X 52.7108 36.3430 63.8110
X 52.7108 36.3430 64.5110
X 53.4108 36.3430 45.6110
X 53.4108 36.3430 46.3110
X 53.4108 36.3430 47.0110
X 53.4108 36.3430 47.7110
X 53.4108 36.3430 48.4110
X 53.4108 36.3430 49.1110
X 53.4108 36.3430 49.8110
X 53.4108 36.3430 50.5110
X 53.4108 36.3430 51.2110
X 53.4108 36.3430 51.9110
X 53.4108 36.3430 52.6110
X 53.4108 36.3430 53.3110
X 53.4108 36.3430 54.0110
X 53.4108 36.3430 54.7110
X 53.4108 36.3430 55.4110
X 53.4108 36.3430 56.1110
X 53.4108 36.3430 58.2110
X 53.4108 36.3430 58.9110
X 53.4108 36.3430 59.6110
X 53.4108 36.3430 60.3110
X 53.4108 36.3430 61.0110
X 53.4108 36.3430 61.7110
X 53.4108 36.3430 62.4110
X 53.4108 36.3430 63.1110
X 53.4108 36.3430 63.8110
X 53.4108 36.3430 64.5110
X 53.4108 36.3430 65.2110
X 54.1108 36.3430 45.6110
X 54.1108 36.3430 46.3110
X 54.1108 36.3430 47.0110
X 54.1108 36.3430 47.7110
X 54.1108 36.3430 48.4110
X 54.1108 36.3430 49.1110
X 54.1108 36.3430 49.8110
X 54.1108 36.3430 50.5110
X 54.1108 36.3430 51.2110
X 54.1108 36.3430 51.9110
X 54.1108 36.3430 52.6110
X 54.1108 36.3430 53.3110
X 54.1108 36.3430 54.0110
X 54.1108 36.3430 54.7110
X 54.1108 36.3430 59.6110
X 54.1108 36.3430 60.3110
X 54.1108 36.3430 61.0110
X 54.1108 36.3430 61.7110
X 54.1108 36.3430 62.4110
X 54.1108 36.3430 63.1110
X 54.1108 36.3430 63.8110
X 54.1108 36.3430 64.5110
X 54.1108 36.3430 65.2110
X 54.8108 36.3430 44.9110
X 54.8108 36.3430 45.6110
X 54.8108 36.3430 46.3110
X 54.8108 36.3430 47.0110
X 54.8108 36.3430 47.7110
X 54.8108 36.3430 48.4110
X 54.8108 36.3430 49.1110
X 54.8108 36.3430 49.8110
X 54.8108 36.3430 50.5110
X 54.8108 36.3430 51.2110
X 54.8108 36.3430 51.9110
X 54.8108 36.3430 52.6110
X 54.8108 36.3430 53.3110
X 54.8108 36.3430 54.0110
X 54.8108 36.3430 60.3110
X 54.8108 36.3430 61.0110
X 54.8108 36.3430 61.7110
X 54.8108 36.3430 62.4110
X 54.8108 36.3430 63.1110
X 54.8108 36.3430 63.8110
X 54.8108 36.3430 64.5110
X 54.8108 36.3430 65.2110
X 55.5108 36.3430 44.9110
X 55.5108 36.3430 45.6110
X 55.5108 36.3430 46.3110
X 55.5108 36.3430 47.0110
X 55.5108 36.3430 47.7110
X 55.5108 36.3430 48.4110
X 55.5108 36.3430 49.1110
X 55.5108 36.3430 49.8110
X 55.5108 36.3430 50.5110
X 55.5108 36.3430 51.2110
X 55.5108 36.3430 51.9110
X 55.5108 36.3430 60.3110
X 55.5108 36.3430 61.0110
X 55.5108 36.3430 61.7110
X 55.5108 36.3430 62.4110
X 55.5108 36.3430 63.1110
X 55.5108 36.3430 63.8110
X 55.5108 36.3430 64.5110
X 55.5108 36.3430 65.2110
X 56.2108 36.3430 44.9110
X 56.2108 36.3430 45.6110
X 56.2108 36.3430 46.3110
X 56.2108 36.3430 47.0110
X 56.2108 36.3430 47.7110
X 56.2108 36.3430 48.4110
X 56.2108 36.3430 49.1110
X 56.2108 36.3430 49.8110
X 56.2108 36.3430 50.5110
X 56.2108 36.3430 51.2110
X 56.2108 36.3430 61.0110
X 56.2108 36.3430 61.7110
X 56.2108 36.3430 62.4110
X 56.2108 36.3430 63.1110
X 56.2108 36.3430 63.8110
X 56.2108 36.3430 64.5110
X 56.2108 36.3430 65.2110
X 56.2108 36.3430 65.9110
X 56.9108 36.3430 44.9110
X 56.9108 36.3430 45.6110
X 56.9108 36.3430 46.3110
X 56.9108 36.3430 47.0110
X 56.9108 36.3430 47.7110
X 56.9108 36.3430 48.4110
X 56.9108 36.3430 49.1110
X 56.9108 36.3430 49.8110
X 56.9108 36.3430 50.5110
X 56.9108 36.3430 51.2110
X 56.9108 36.3430 61.0110
X 56.9108 36.3430 61.7110
X 56.9108 36.3430 62.4110
X 56.9108 36.3430 63.1110
X 56.9108 36.3430 63.8110
X 56.9108 36.3430 64.5110
X 56.9108 36.3430 65.2110
X 56.9108 36.3430 65.9110
X 57.6108 36.3430 44.9110
X 57.6108 36.3430 45.6110
X 57.6108 36.3430 46.3110
X 57.6108 36.3430 47.0110
X 57.6108 36.3430 47.7110
X 57.6108 36.3430 48.4110
X 57.6108 36.3430 49.1110
X 57.6108 36.3430 49.8110
X 57.6108 36.3430 50.5110
X 57.6108 36.3430 61.0110
X 57.6108 36.3430 61.7110
X 57.6108 36.3430 62.4110
X 57.6108 36.3430 63.1110
X 57.6108 36.3430 63.8110
X 57.6108 36.3430 64.5110
X 57.6108 36.3430 65.2110
X 57.6108 36.3430 65.9110
X 58.3108 36.3430 44.9110
X 58.3108 36.3430 45.6110
X 58.3108 36.3430 46.3110
X 58.3108 36.3430 47.0110
X 58.3108 36.3430 47.7110
X 58.3108 36.3430 48.4110
X 58.3108 36.3430 49.1110
X 58.3108 36.3430 49.8110
X 58.3108 36.3430 50.5110
X 58.3108 36.3430 61.0110
X 58.3108 36.3430 61.7110
X 58.3108 36.3430 62.4110
X 58.3108 36.3430 63.1110
X 58.3108 36.3430 63.8110
X 58.3108 36.3430 64.5110
X 58.3108 36.3430 65.2110
X 58.3108 36.3430 65.9110
X 59.0108 36.3430 44.9110
X 59.0108 36.3430 45.6110
X 59.0108 36.3430 46.3110
X 59.0108 36.3430 47.0110
X 59.0108 36.3430 47.7110
X 59.0108 36.3430 48.4110
X 59.0108 36.3430 49.1110
X 59.0108 36.3430 49.8110
X 59.0108 36.3430 50.5110
X 59.0108 36.3430 51.2110
X 59.0108 36.3430 61.0110
X 59.0108 36.3430 61.7110
X 59.0108 36.3430 62.4110
X 59.0108 36.3430 63.1110
X 59.0108 36.3430 63.8110
X 59.0108 36.3430 64.5110
X 59.0108 36.3430 65.2110
X 59.0108 36.3430 65.9110
X 59.7108 36.3430 44.9110
X 59.7108 36.3430 45.6110
X 59.7108 36.3430 46.3110
X 59.7108 36.3430 47.0110
X 59.7108 36.3430 47.7110
X 59.7108 36.3430 48.4110
X 59.7108 36.3430 49.1110
X 59.7108 36.3430 49.8110
X 59.7108 36.3430 50.5110
X 59.7108 36.3430 51.2110
X 59.7108 36.3430 61.0110
X 59.7108 36.3430 61.7110
X 59.7108 36.3430 62.4110
X 59.7108 36.3430 63.1110
X 59.7108 36.3430 63.8110
X 59.7108 36.3430 64.5110
X 59.7108 36.3430 65.2110
X 59.7108 36.3430 65.9110
X 60.4108 36.3430 44.9110
X 60.4108 36.3430 45.6110
X 60.4108 36.3430 46.3110
X 60.4108 36.3430 47.0110
X 60.4108 36.3430 47.7110
X 60.4108 36.3430 48.4110
X 60.4108 36.3430 49.1110
X 60.4108 36.3430 49.8110
X 60.4108 36.3430 50.5110
X 60.4108 36.3430 51.2110
X 60.4108 36.3430 61.0110
X 60.4108 36.3430 61.7110
X 60.4108 36.3430 62.4110
X 60.4108 36.3430 63.1110
X 60.4108 36.3430 63.8110
X 60.4108 36.3430 64.5110
X 60.4108 36.3430 65.2110
X 60.4108 36.3430 65.9110
X 61.1108 36.3430 44.9110
X 61.1108 36.3430 45.6110
X 61.1108 36.3430 46.3110
X 61.1108 36.3430 47.0110
X 61.1108 36.3430 47.7110
X 61.1108 36.3430 48.4110
X 61.1108 36.3430 49.1110
X 61.1108 36.3430 49.8110
X 61.1108 36.3430 50.5110
X 61.1108 36.3430 51.2110
X 61.1108 36.3430 51.9110
X 61.1108 36.3430 61.0110
X 61.1108 36.3430 61.7110
X 61.1108 36.3430 62.4110
X 61.1108 36.3430 63.1110
X 61.1108 36.3430 63.8110
X 61.1108 36.3430 64.5110
X 61.1108 36.3430 65.2110
X 61.1108 36.3430 65.9110
X 61.8108 36.3430 44.9110
X 61.8108 36.3430 45.6110
X 61.8108 36.3430 46.3110
X 61.8108 36.3430 47.0110
X 61.8108 36.3430 47.7110
X 61.8108 36.3430 48.4110
X 61.8108 36.3430 49.1110
X 61.8108 36.3430 49.8110
X 61.8108 36.3430 50.5110
X 61.8108 36.3430 51.2110
X 61.8108 36.3430 51.9110
X 61.8108 36.3430 52.6110
X 61.8108 36.3430 53.3110
X 61.8108 36.3430 54.0110
X 61.8108 36.3430 60.3110
X 61.8108 36.3430 61.0110
X 61.8108 36.3430 61.7110
X 61.8108 36.3430 62.4110
X 61.8108 36.3430 63.1110
X 61.8108 36.3430 63.8110
X 61.8108 36.3430 64.5110
X 61.8108 36.3430 65.2110
X 61.8108 36.3430 65.9110
X 62.5108 36.3430 45.6110
X 62.5108 36.3430 46.3110
X 62.5108 36.3430 47.0110
X 62.5108 36.3430 47.7110
X 62.5108 36.3430 48.4110
X 62.5108 36.3430 49.1110
X 62.5108 36.3430 49.8110
X 62.5108 36.3430 50.5110
X 62.5108 36.3430 51.2110
X 62.5108 36.3430 51.9110
X 62.5108 36.3430 52.6110
X 62.5108 36.3430 53.3110
X 62.5108 36.3430 54.0110
X 62.5108 36.3430 54.7110
X 62.5108 36.3430 59.6110
X 62.5108 36.3430 60.3110
X 62.5108 36.3430 61.0110
X 62.5108 36.3430 61.7110
X 62.5108 36.3430 62.4110
X 62.5108 36.3430 63.1110
X 62.5108 36.3430 63.8110
X 62.5108 36.3430 64.5110
X 62.5108 36.3430 65.2110
X 63.2108 36.3430 45.6110
X 63.2108 36.3430 46.3110
X 63.2108 36.3430 47.0110
X 63.2108 36.3430 47.7110
X 63.2108 36.3430 48.4110
X 63.2108 36.3430 49.1110
X 63.2108 36.3430 49.8110
X 63.2108 36.3430 50.5110
X 63.2108 36.3430 51.2110
X 63.2108 36.3430 51.9110
X 63.2108 36.3430 52.6110
X 63.2108 36.3430 53.3110
X 63.2108 36.3430 54.0110
X 63.2108 36.3430 54.7110
X 63.2108 36.3430 55.4110
X 63.2108 36.3430 56.1110
X 63.2108 36.3430 58.9110
X 63.2108 36.3430 59.6110
X 63.2108 36.3430 60.3110
X 63.2108 36.3430 61.0110
X 63.2108 36.3430 61.7110
X 63.2108 36.3430 62.4110
X 63.2108 36.3430 63.1110
X 63.2108 36.3430 63.8110
X 63.2108 36.3430 64.5110
X 63.2108 36.3430 65.2110
X 63.9108 36.3430 45.6110
X 63.9108 36.3430 46.3110
X 63.9108 36.3430 47.0110
X 63.9108 36.3430 47.7110
X 63.9108 36.3430 48.4110
X 63.9108 36.3430 49.1110
X 63.9108 36.3430 49.8110
X 63.9108 36.3430 50.5110
X 63.9108 36.3430 51.2110
X 63.9108 36.3430 51.9110
X 63.9108 36.3430 52.6110
X 63.9108 36.3430 53.3110
X 63.9108 36.3430 54.0110
X 63.9108 36.3430 54.7110
X 63.9108 36.3430 55.4110
X 63.9108 36.3430 56.1110
X 63.9108 36.3430 56.8110
X 63.9108 36.3430 57.5110
X 63.9108 36.3430 58.2110
X 63.9108 36.3430 58.9110
X 63.9108 36.3430 59.6110
X 63.9108 36.3430 60.3110
X 63.9108 36.3430 61.0110
X 63.9108 36.3430 61.7110
X 63.9108 36.3430 62.4110
X 63.9108 36.3430 63.1110
X 63.9108 36.3430 63.8110
X 63.9108 36.3430 64.5110
X 63.9108 36.3430 65.2110
X 64.6108 36.3430 46.3110
X 64.6108 36.3430 47.0110
X 64.6108 36.3430 47.7110
X 64.6108 36.3430 48.4110
X 64.6108 36.3430 49.1110
X 64.6108 36.3430 49.8110
X 64.6108 36.3430 50.5110
X 64.6108 36.3430 51.2110
X 64.6108 36.3430 51.9110
X 64.6108 36.3430 52.6110
X 64.6108 36.3430 53.3110
X 64.6108 36.3430 54.0110
X 64.6108 36.3430 54.7110
X 64.6108 36.3430 55.4110
X 64.6108 36.3430 56.1110
X 64.6108 36.3430 56.8110
X 64.6108 36.3430 57.5110
X 64.6108 36.3430 58.2110
X 64.6108 36.3430 58.9110
X 64.6108 36.3430 59.6110
X 64.6108 36.3430 60.3110
X 64.6108 36.3430 61.0110
X 64.6108 36.3430 61.7110
X 64.6108 36.3430 62.4110
X 64.6108 36.3430 63.1110
X 64.6108 36.3430 63.8110
X 64.6108 36.3430 64.5110
X 65.3108 36.3430 47.0110
X 65.3108 36.3430 47.7110
X 65.3108 36.3430 48.4110
X 65.3108 36.3430 49.1110
X 65.3108 36.3430 49.8110
X 65.3108 36.3430 50.5110
X 65.3108 36.3430 51.2110
X 65.3108 36.3430 51.9110
X 65.3108 36.3430 52.6110
X 65.3108 36.3430 53.3110
X 65.3108 36.3430 54.0110
X 65.3108 36.3430 54.7110
X 65.3108 36.3430 55.4110
X 65.3108 36.3430 56.1110
X 65.3108 36.3430 56.8110
X 65.3108 36.3430 57.5110
X 65.3108 36.3430 58.2110
X 65.3108 36.3430 58.9110
X 65.3108 36.3430 59.6110
X 65.3108 36.3430 60.3110
X 65.3108 36.3430 61.0110
X 65.3108 36.3430 61.7110
X 65.3108 36.3430 62.4110
X 65.3108 36.3430 63.1110
X 65.3108 36.3430 63.8110
X 65.3108 36.3430 64.5110
X 66.0108 36.3430 47.0110
X 66.0108 36.3430 47.7110
X 66.0108 36.3430 48.4110
X 66.0108 36.3430 49.1110
X 66.0108 36.3430 49.8110
X 66.0108 36.3430 50.5110
X 66.0108 36.3430 51.2110
X 66.0108 36.3430 51.9110
X 66.0108 36.3430 52.6110
X 66.0108 36.3430 53.3110
X 66.0108 36.3430 54.0110
X 66.0108 36.3430 54.7110
X 66.0108 36.3430 55.4110
X 66.0108 36.3430 56.1110
X 66.0108 36.3430 56.8110
X 66.0108 36.3430 57.5110
X 66.0108 36.3430 58.2110
X 66.0108 36.3430 58.9110
X 66.0108 36.3430 59.6110
X 66.0108 36.3430 60.3110
X 66.0108 36.3430 61.0110
X 66.0108 36.3430 61.7110
X 66.0108 36.3430 62.4110
X 66.0108 36.3430 63.1110
X 66.0108 36.3430 63.8110
X 66.7108 36.3430 47.7110
X 66.7108 36.3430 48.4110
X 66.7108 36.3430 49.1110
X 66.7108 36.3430 49.8110
X 66.7108 36.3430 50.5110
X 66.7108 36.3430 51.2110
X 66.7108 36.3430 51.9110
X 66.7108 36.3430 52.6110
X 66.7108 36.3430 53.3110
X 66.7108 36.3430 54.0110
X 66.7108 36.3430 54.7110
X 66.7108 36.3430 55.4110
X 66.7108 36.3430 56.1110
X 66.7108 36.3430 56.8110
X 66.7108 36.3430 57.5110
X 66.7108 36.3430 58.2110
X 66.7108 36.3430 58.9110
X 66.7108 36.3430 59.6110
X 66.7108 36.3430 60.3110
X 66.7108 36.3430 61.0110
X 66.7108 36.3430 61.7110
X 66.7108 36.3430 62.4110
X 66.7108 36.3430 63.1110
X 67.4108 36.3430 48.4110
X 67.4108 36.3430 49.1110
X 67.4108 36.3430 49.8110
X 67.4108 36.3430 50.5110
X 67.4108 36.3430 51.2110
X 67.4108 36.3430 51.9110
X 67.4108 36.3430 52.6110
X 67.4108 36.3430 53.3110
X 67.4108 36.3430 54.0110
X 67.4108 36.3430 54.7110
X 67.4108 36.3430 55.4110
X 67.4108 36.3430 56.1110
X 67.4108 36.3430 56.8110
X 67.4108 36.3430 57.5110
X 67.4108 36.3430 58.2110
X 67.4108 36.3430 58.9110
X 67.4108 36.3430 59.6110
X 67.4108 36.3430 60.3110
X 67.4108 36.3430 61.0110
X 67.4108 36.3430 61.7110
X 67.4108 36.3430 62.4110
X 68.1108 36.3430 49.1110
X 68.1108 36.3430 49.8110
X 68.1108 36.3430 50.5110
X 68.1108 36.3430 51.2110
X 68.1108 36.3430 51.9110
X 68.1108 36.3430 52.6110
X 68.1108 36.3430 53.3110
X 68.1108 36.3430 54.0110
X 68.1108 36.3430 54.7110
X 68.1108 36.3430 55.4110
X 68.1108 36.3430 56.1110
X 68.1108 36.3430 56.8110
X 68.1108 36.3430 57.5110
X 68.1108 36.3430 58.2110
X 68.1108 36.3430 58.9110
X 68.1108 36.3430 59.6110
X 68.1108 36.3430 60.3110
X 68.1108 36.3430 61.0110
X 68.1108 36.3430 61.7110
X 68.8108 36.3430 50.5110
X 68.8108 36.3430 51.2110
X 68.8108 36.3430 51.9110
X 68.8108 36.3430 52.6110
X 68.8108 36.3430 53.3110
X 68.8108 36.3430 54.0110
X 68.8108 36.3430 54.7110
X 68.8108 36.3430 55.4110
X 68.8108 36.3430 56.1110
X 68.8108 36.3430 56.8110
X 68.8108 36.3430 57.5110
X 68.8108 36.3430 58.2110
X 68.8108 36.3430 58.9110
X 68.8108 36.3430 59.6110
X 68.8108 36.3430 60.3110
X 69.5108 36.3430 56.1110
X 69.5108 36.3430 56.8110
X 69.5108 36.3430 57.5110
X 69.5108 36.3430 58.2110
X 47.8108 37.0430 54.7110
X 47.8108 37.0430 55.4110
X 48.5108 37.0430 51.9110
X 48.5108 37.0430 52.6110
X 48.5108 37.0430 53.3110
X 48.5108 37.0430 54.0110
X 48.5108 37.0430 54.7110
X 48.5108 37.0430 55.4110
X 48.5108 37.0430 56.1110
X 48.5108 37.0430 56.8110
X 48.5108 37.0430 57.5110
X 48.5108 37.0430 58.2110
X 48.5108 37.0430 58.9110
X 48.5108 37.0430 59.6110
X 49.2108 37.0430 50.5110
X 49.2108 37.0430 51.2110
X 49.2108 37.0430 51.9110
X 49.2108 37.0430 52.6110
X 49.2108 37.0430 53.3110
X 49.2108 37.0430 54.0110
X 49.2108 37.0430 54.7110
X 49.2108 37.0430 55.4110
X 49.2108 37.0430 56.1110
X 49.2108 37.0430 56.8110
X 49.2108 37.0430 57.5110
X 49.2108 37.0430 58.2110
X 49.2108 37.0430 58.9110
X 49.2108 37.0430 59.6110
X 49.2108 37.0430 60.3110
X 49.2108 37.0430 61.0110
X 49.9108 37.0430 49.1110
X 49.9108 37.0430 49.8110
X 49.9108 37.0430 50.5110
X 49.9108 37.0430 51.2110
X 49.9108 37.0430 51.9110
X 49.9108 37.0430 52.6110
X 49.9108 37.0430 53.3110
X 49.9108 37.0430 54.0110
X 49.9108 37.0430 54.7110
X 49.9108 37.0430 55.4110
X 49.9108 37.0430 56.1110
X 49.9108 37.0430 56.8110
X 49.9108 37.0430 57.5110
X 49.9108 37.0430 58.2110
X 49.9108 37.0430 58.9110
X 49.9108 37.0430 59.6110
X 49.9108 37.0430 60.3110
X 49.9108 37.0430 61.0110
X 49.9108 37.0430 61.7110
X 49.9108 37.0430 62.4110
X 50.6108 37.0430 48.4110
X 50.6108 37.0430 49.1110
X 50.6108 37.0430 49.8110
X 50.6108 37.0430 50.5110
X 50.6108 37.0430 51.2110
X 50.6108 37.0430 51.9110
X 50.6108 37.0430 52.6110
X 50.6108 37.0430 53.3110
X 50.6108 37.0430 54.0110
X 50.6108 37.0430 54.7110
X 50.6108 37.0430 55.4110
X 50.6108 37.0430 56.1110
X 50.6108 37.0430 56.8110
X 50.6108 37.0430 57.5110
X 50.6108 37.0430 58.2110
X 50.6108 37.0430 58.9110
X 50.6108 37.0430 59.6110
X 50.6108 37.0430 60.3110
X 50.6108 37.0430 61.0110
X 50.6108 37.0430 61.7110
X 50.6108 37.0430 62.4110
X 50.6108 37.0430 63.1110
X 51.3108 37.0430 47.7110
X 51.3108 37.0430 48.4110
X 51.3108 37.0430 49.1110
X 51.3108 37.0430 49.8110
X 51.3108 37.0430 50.5110
X 51.3108 37.0430 51.2110
X 51.3108 37.0430 51.9110
X 51.3108 37.0430 52.6110
X 51.3108 37.0430 53.3110
X 51.3108 37.0430 54.0110
X 51.3108 37.0430 54.7110
X 51.3108 37.0430 55.4110
X 51.3108 37.0430 56.1110
X 51.3108 37.0430 56.8110
X 51.3108 37.0430 57.5110
X 51.3108 37.0430 58.2110
X 51.3108 37.0430 58.9110
X 51.3108 37.0430 59.6110
X 51.3108 37.0430 60.3110
X 51.3108 37.0430 61.0110
X 51.3108 37.0430 61.7110
X 51.3108 37.0430 62.4110
X 51.3108 37.0430 63.1110
X 51.3108 37.0430 63.8110
X 52.0108 37.0430 47.0110
X 52.0108 37.0430 47.7110
X 52.0108 37.0430 48.4110
X 52.0108 37.0430 49.1110
X 52.0108 37.0430 49.8110
X 52.0108 37.0430 50.5110
X 52.0108 37.0430 51.2110
X 52.0108 37.0430 51.9110
X 52.0108 37.0430 52.6110
X 52.0108 37.0430 53.3110
X 52.0108 37.0430 54.0110
X 52.0108 37.0430 54.7110
X 52.0108 37.0430 55.4110
X 52.0108 37.0430 56.1110
X 52.0108 37.0430 56.8110
X 52.0108 37.0430 57.5110
X 52.0108 37.0430 58.2110
X 52.0108 37.0430 58.9110
X 52.0108 37.0430 59.6110
X 52.0108 37.0430 60.3110
X 52.0108 37.0430 61.0110
X 52.0108 37.0430 61.7110
X 52.0108 37.0430 62.4110
X 52.0108 37.0430 63.1110
X 52.0108 37.0430 63.8110
X 52.7108 37.0430 46.3110
X 52.7108 37.0430 47.0110
X 52.7108 37.0430 47.7110
X 52.7108 37.0430 48.4110
X 52.7108 37.0430 49.1110
X 52.7108 37.0430 49.8110
X 52.7108 37.0430 50.5110
X 52.7108 37.0430 51.2110
X 52.7108 37.0430 51.9110
X 52.7108 37.0430 52.6110
X 52.7108 37.0430 53.3110
X 52.7108 37.0430 54.0110
X 52.7108 37.0430 54.7110
X 52.7108 37.0430 55.4110
X 52.7108 37.0430 56.1110
X 52.7108 37.0430 56.8110
X 52.7108 37.0430 57.5110
X 52.7108 37.0430 58.2110
X 52.7108 37.0430 58.9110
X 52.7108 37.0430 59.6110
X 52.7108 37.0430 60.3110
X 52.7108 37.0430 61.0110
X 52.7108 37.0430 61.7110
X 52.7108 37.0430 62.4110
X 52.7108 37.0430 63.1110
X 52.7108 37.0430 63.8110
X 52.7108 37.0430 64.5110
X 53.4108 37.0430 46.3110
X 53.4108 37.0430 47.0110
X 53.4108 37.0430 47.7110
X 53.4108 37.0430 48.4110
X 53.4108 37.0430 49.1110
X 53.4108 37.0430 49.8110
X 53.4108 37.0430 50.5110
X 53.4108 37.0430 51.2110
X 53.4108 37.0430 51.9110
X 53.4108 37.0430 52.6110
X 53.4108 37.0430 53.3110
X 53.4108 37.0430 54.0110
X 53.4108 37.0430 54.7110
X 53.4108 37.0430 55.4110
X 53.4108 37.0430 56.1110
X 53.4108 37.0430 56.8110
X 53.4108 37.0430 57.5110
X 53.4108 37.0430 58.2110
X 53.4108 37.0430 58.9110
X 53.4108 37.0430 59.6110
X 53.4108 37.0430 60.3110
X 53.4108 37.0430 61.0110
X 53.4108 37.0430 61.7110
X 53.4108 37.0430 62.4110
X 53.4108 37.0430 63.1110
X 53.4108 37.0430 63.8110
X 53.4108 37.0430 64.5110
X 53.4108 37.0430 65.2110
X 54.1108 37.0430 45.6110
X 54.1108 37.0430 46.3110
X 54.1108 37.0430 47.0110
X 54.1108 37.0430 47.7110
X 54.1108 37.0430 48.4110
X 54.1108 37.0430 49.1110
X 54.1108 37.0430 49.8110
X 54.1108 37.0430 50.5110
X 54.1108 37.0430 51.2110
X 54.1108 37.0430 51.9110
X 54.1108 37.0430 52.6110
X 54.1108 37.0430 53.3110
X 54.1108 37.0430 54.0110
X 54.1108 37.0430 54.7110
X 54.1108 37.0430 59.6110
X 54.1108 37.0430 60.3110
X 54.1108 37.0430 61.0110
X 54.1108 37.0430 61.7110
X 54.1108 37.0430 62.4110
X 54.1108 37.0430 63.1110
X 54.1108 37.0430 63.8110
X 54.1108 37.0430 64.5110
X 54.1108 37.0430 65.2110
X 54.8108 37.0430 45.6110
X 54.8108 37.0430 46.3110
X 54.8108 37.0430 47.0110
X 54.8108 37.0430 47.7110
X 54.8108 37.0430 48.4110
X 54.8108 37.0430 49.1110
X 54.8108 37.0430 49.8110
X 54.8108 37.0430 50.5110
X 54.8108 37.0430 51.2110
X 54.8108 37.0430 51.9110
X 54.8108 37.0430 52.6110
X 54.8108 37.0430 53.3110
X 54.8108 37.0430 54.0110
X 54.8108 37.0430 60.3110
X 54.8108 37.0430 61.0110
X 54.8108 37.0430 61.7110
X 54.8108 37.0430 62.4110
X 54.8108 37.0430 63.1110
X 54.8108 37.0430 63.8110
X 54.8108 37.0430 64.5110
X 54.8108 37.0430 65.2110
X 55.5108 37.0430 44.9110
X 55.5108 37.0430 45.6110
X 55.5108 37.0430 46.3110
X 55.5108 37.0430 47.0110
X 55.5108 37.0430 47.7110
X 55.5108 37.0430 48.4110
X 55.5108 37.0430 49.1110
X 55.5108 37.0430 49.8110
X 55.5108 37.0430 50.5110
X 55.5108 37.0430 51.2110
X 55.5108 37.0430 51.9110
X 55.5108 37.0430 52.6110
X 55.5108 37.0430 53.3110
X 55.5108 37.0430 60.3110
X 55.5108 37.0430 61.0110
X 55.5108 37.0430 61.7110
X 55.5108 37.0430 62.4110
X 55.5108 37.0430 63.1110
X 55.5108 37.0430 63.8110
X 55.5108 37.0430 64.5110
X 55.5108 37.0430 65.2110
X 56.2108 37.0430 44.9110
X 56.2108 37.0430 45.6110
X 56.2108 37.0430 46.3110
X 56.2108 37.0430 47.0110
X 56.2108 37.0430 47.7110
X 56.2108 37.0430 48.4110
X 56.2108 37.0430 49.1110
X 56.2108 37.0430 49.8110
X 56.2108 37.0430 50.5110
X 56.2108 37.0430 51.2110
X 56.2108 37.0430 51.9110
X 56.2108 37.0430 52.6110
X 56.2108 37.0430 61.0110
X 56.2108 37.0430 61.7110
X 56.2108 37.0430 62.4110
X 56.2108 37.0430 63.1110
X 56.2108 37.0430 63.8110
X 56.2108 37.0430 64.5110
X 56.2108 37.0430 65.2110
X 56.9108 37.0430 44.9110
X 56.9108 37.0430 45.6110
X 56.9108 37.0430 46.3110
X 56.9108 37.0430 47.0110
X 56.9108 37.0430 47.7110
X 56.9108 37.0430 48.4110
X 56.9108 37.0430 49.1110
X 56.9108 37.0430 49.8110
X 56.9108 37.0430 50.5110
X 56.9108 37.0430 51.2110
X 56.9108 37.0430 51.9110
X 56.9108 37.0430 61.0110
X 56.9108 37.0430 61.7110
X 56.9108 37.0430 62.4110
X 56.9108 37.0430 63.1110
X 56.9108 37.0430 63.8110
X 56.9108 37.0430 64.5110
X 56.9108 37.0430 65.2110
X 56.9108 37.0430 65.9110
X 57.6108 37.0430 44.9110
X 57.6108 37.0430 45.6110
X 57.6108 37.0430 46.3110
X 57.6108 37.0430 47.0110
X 57.6108 37.0430 47.7110
X 57.6108 37.0430 48.4110
X 57.6108 37.0430 49.1110
X 57.6108 37.0430 49.8110
X 57.6108 37.0430 50.5110
X 57.6108 37.0430 51.2110
X 57.6108 37.0430 51.9110
X 57.6108 37.0430 61.0110
X 57.6108 37.0430 61.7110
X 57.6108 37.0430 62.4110
X 57.6108 37.0430 63.1110
X 57.6108 37.0430 63.8110
X 57.6108 37.0430 64.5110
X 57.6108 37.0430 65.2110
X 58.3108 37.0430 44.9110
X 58.3108 37.0430 45.6110
X 58.3108 37.0430 46.3110
X 58.3108 37.0430 47.0110
X 58.3108 37.0430 47.7110
X 58.3108 37.0430 48.4110
X 58.3108 37.0430 49.1110
X 58.3108 37.0430 49.8110
X 58.3108 37.0430 50.5110
X 58.3108 37.0430 51.2110
X 58.3108 37.0430 51.9110
X 58.3108 37.0430 61.0110
X 58.3108 37.0430 61.7110
X 58.3108 37.0430 62.4110
X 58.3108 37.0430 63.1110
X 58.3108 37.0430 63.8110
X 58.3108 37.0430 64.5110
X 58.3108 37.0430 65.2110
X 59.0108 37.0430 44.9110
X 59.0108 37.0430 45.6110
X 59.0108 37.0430 46.3110
X 59.0108 37.0430 47.0110
X 59.0108 37.0430 47.7110
X 59.0108 37.0430 48.4110
X 59.0108 37.0430 49.1110
X 59.0108 37.0430 49.8110
X 59.0108 37.0430 50.5110
X 59.0108 37.0430 51.2110
X 59.0108 37.0430 51.9110
X 59.0108 37.0430 61.0110
X 59.0108 37.0430 61.7110
X 59.0108 37.0430 62.4110
X 59.0108 37.0430 63.1110
X 59.0108 37.0430 63.8110
X 59.0108 37.0430 64.5110
X 59.0108 37.0430 65.2110
X 59.7108 37.0430 44.9110
X 59.7108 37.0430 45.6110
X 59.7108 37.0430 46.3110
X 59.7108 37.0430 47.0110
X 59.7108 37.0430 47.7110
X 59.7108 37.0430 48.4110
X 59.7108 37.0430 49.1110
X 59.7108 37.0430 49.8110
X 59.7108 37.0430 50.5110
X 59.7108 37.0430 51.2110
X 59.7108 37.0430 51.9110
X 59.7108 37.0430 52.6110
X 59.7108 37.0430 60.3110
X 59.7108 37.0430 61.0110
X 59.7108 37.0430 61.7110
X 59.7108 37.0430 62.4110
X 59.7108 37.0430 63.1110
X 59.7108 37.0430 63.8110
X 59.7108 37.0430 64.5110
X 59.7108 37.0430 65.2110
X 60.4108 37.0430 44.9110
X 60.4108 37.0430 45.6110
X 60.4108 37.0430 46.3110
X 60.4108 37.0430 47.0110
X 60.4108 37.0430 47.7110
X 60.4108 37.0430 48.4110
X 60.4108 37.0430 49.1110
X 60.4108 37.0430 49.8110
X 60.4108 37.0430 50.5110
X 60.4108 37.0430 51.2110
X 60.4108 37.0430 51.9110
X 60.4108 37.0430 52.6110
X 60.4108 37.0430 53.3110
X 60.4108 37.0430 60.3110
X 60.4108 37.0430 61.0110
X 60.4108 37.0430 61.7110
X 60.4108 37.0430 62.4110
X 60.4108 37.0430 63.1110
X 60.4108 37.0430 63.8110
X 60.4108 37.0430 64.5110
X 60.4108 37.0430 65.2110
X 61.1108 37.0430 44.9110
X 61.1108 37.0430 45.6110
X 61.1108 37.0430 46.3110
X 61.1108 37.0430 47.0110
X 61.1108 37.0430 47.7110
X 61.1108 37.0430 48.4110
X 61.1108 37.0430 49.1110
X 61.1108 37.0430 49.8110
X 61.1108 37.0430 50.5110
X 61.1108 37.0430 51.2110
X 61.1108 37.0430 51.9110
X 61.1108 37.0430 52.6110
X 61.1108 37.0430 53.3110
X 61.1108 37.0430 60.3110
X 61.1108 37.0430 61.0110
X 61.1108 37.0430 61.7110
X 61.1108 37.0430 62.4110
X 61.1108 37.0430 63.1110
X 61.1108 37.0430 63.8110
X 61.1108 37.0430 64.5110
X 61.1108 37.0430 65.2110
X 61.8108 37.0430 45.6110
X 61.8108 37.0430 46.3110
X 61.8108 37.0430 47.0110
X 61.8108 37.0430 47.7110
X 61.8108 37.0430 48.4110
X 61.8108 37.0430 49.1110
X 61.8108 37.0430 49.8110
X 61.8108 37.0430 50.5110
X 61.8108 37.0430 51.2110
X 61.8108 37.0430 51.9110
X 61.8108 37.0430 52.6110
X 61.8108 37.0430 53.3110
X 61.8108 37.0430 54.0110
X 61.8108 37.0430 59.6110
X 61.8108 37.0430 60.3110
X 61.8108 37.0430 61.0110
X 61.8108 37.0430 61.7110
X 61.8108 37.0430 62.4110
X 61.8108 37.0430 63.1110
X 61.8108 37.0430 63.8110
X 61.8108 37.0430 64.5110
X 61.8108 37.0430 65.2110
X 62.5108 37.0430 45.6110
X 62.5108 37.0430 46.3110
X 62.5108 37.0430 47.0110
X 62.5108 37.0430 47.7110
X 62.5108 37.0430 48.4110
X 62.5108 37.0430 49.1110
X 62.5108 37.0430 49.8110
X 62.5108 37.0430 50.5110
X 62.5108 37.0430 51.2110
X 62.5108 37.0430 51.9110
X 62.5108 37.0430 52.6110
X 62.5108 37.0430 53.3110
X 62.5108 37.0430 54.0110
X 62.5108 37.0430 54.7110
X 62.5108 37.0430 55.4110
X 62.5108 37.0430 58.9110
X 62.5108 37.0430 59.6110
X 62.5108 37.0430 60.3110
X 62.5108 37.0430 61.0110
X 62.5108 37.0430 61.7110
X 62.5108 37.0430 62.4110
X 62.5108 37.0430 63.1110
X 62.5108 37.0430 63.8110
X 62.5108 37.0430 64.5110
X 62.5108 37.0430 65.2110
X 63.2108 37.0430 45.6110
X 63.2108 37.0430 46.3110
X 63.2108 37.0430 47.0110
X 63.2108 37.0430 47.7110
X 63.2108 37.0430 48.4110
X 63.2108 37.0430 49.1110
X 63.2108 37.0430 49.8110
X 63.2108 37.0430 50.5110
X 63.2108 37.0430 51.2110
X 63.2108 37.0430 51.9110
X 63.2108 37.0430 52.6110
X 63.2108 37.0430 53.3110
X 63.2108 37.0430 54.0110
X 63.2108 37.0430 54.7110
X 63.2108 37.0430 55.4110
X 63.2108 37.0430 56.1110
X 63.2108 37.0430 56.8110
X 63.2108 37.0430 57.5110
X 63.2108 37.0430 58.2110
X 63.2108 37.0430 58.9110
X 63.2108 37.0430 59.6110
X 63.2108 37.0430 60.3110
X 63.2108 37.0430 61.0110
X 63.2108 37.0430 61.7110
X 63.2108 37.0430 62.4110
X 63.2108 37.0430 63.1110
X 63.2108 37.0430 63.8110
X 63.2108 37.0430 64.5110
X 63.2108 37.0430 65.2110
X 63.9108 37.0430 46.3110
X 63.9108 37.0430 47.0110
X 63.9108 37.0430 47.7110
X 63.9108 37.0430 48.4110
X 63.9108 37.0430 49.1110
X 63.9108 37.0430 49.8110
X 63.9108 37.0430 50.5110
X 63.9108 37.0430 51.2110
X 63.9108 37.0430 51.9110
X 63.9108 37.0430 52.6110
X 63.9108 37.0430 53.3110
X 63.9108 37.0430 54.0110
X 63.9108 37.0430 54.7110
X 63.9108 37.0430 55.4110
X 63.9108 37.0430 56.1110
X 63.9108 37.0430 56.8110
X 63.9108 37.0430 57.5110
X 63.9108 37.0430 58.2110
X 63.9108 37.0430 58.9110
X 63.9108 37.0430 59.6110
X 63.9108 37.0430 60.3110
X 63.9108 37.0430 61.0110
X 63.9108 37.0430 61.7110
X 63.9108 37.0430 62.4110
X 63.9108 37.0430 63.1110
X 63.9108 37.0430 63.8110
X 63.9108 37.0430 64.5110
X 63.9108 37.0430 65.2110
X 64.6108 37.0430 46.3110
X 64.6108 37.0430 47.0110
X 64.6108 37.0430 47.7110
X 64.6108 37.0430 48.4110
X 64.6108 37.0430 49.1110
X 64.6108 37.0430 49.8110
X 64.6108 37.0430 50.5110
X 64.6108 37.0430 51.2110
X 64.6108 37.0430 51.9110
X 64.6108 37.0430 52.6110
X 64.6108 37.0430 53.3110
X 64.6108 37.0430 54.0110
X 64.6108 37.0430 54.7110
X 64.6108 37.0430 55.4110
X 64.6108 37.0430 56.1110
X 64.6108 37.0430 56.8110
X 64.6108 37.0430 57.5110
X 64.6108 37.0430 58.2110
X 64.6108 37.0430 58.9110
X 64.6108 37.0430 59.6110
X 64.6108 37.0430 60.3110
X 64.6108 37.0430 61.0110
X 64.6108 37.0430 61.7110
X 64.6108 37.0430 62.4110
X 64.6108 37.0430 63.1110
X 64.6108 37.0430 63.8110
X 64.6108 37.0430 64.5110
X 65.3108 37.0430 47.0110
X 65.3108 37.0430 47.7110
X 65.3108 37.0430 48.4110
X 65.3108 37.0430 49.1110
X 65.3108 37.0430 49.8110
X 65.3108 37.0430 50.5110
X 65.3108 37.0430 51.2110
X 65.3108 37.0430 51.9110
X 65.3108 37.0430 52.6110
X 65.3108 37.0430 53.3110
X 65.3108 37.0430 54.0110
X 65.3108 37.0430 54.7110
X 65.3108 37.0430 55.4110
X 65.3108 37.0430 56.1110
X 65.3108 37.0430 56.8110
X 65.3108 37.0430 57.5110
X 65.3108 37.0430 58.2110
X 65.3108 37.0430 58.9110
X 65.3108 37.0430 59.6110
X 65.3108 37.0430 60.3110
X 65.3108 37.0430 61.0110
X 65.3108 37.0430 61.7110
X 65.3108 37.0430 62.4110
X 65.3108 37.0430 63.1110
X 65.3108 37.0430 63.8110
X 65.3108 37.0430 64.5110
X 66.0108 37.0430 47.7110
X 66.0108 37.0430 48.4110
X 66.0108 37.0430 49.1110
X 66.0108 37.0430 49.8110
X 66.0108 37.0430 50.5110
X 66.0108 37.0430 51.2110
X 66.0108 37.0430 51.9110
X 66.0108 37.0430 52.6110
X 66.0108 37.0430 53.3110
X 66.0108 37.0430 54.0110
X 66.0108 37.0430 54.7110
X 66.0108 37.0430 55.4110
X 66.0108 37.0430 56.1110
X 66.0108 37.0430 56.8110
X 66.0108 37.0430 57.5110
X 66.0108 37.0430 58.2110
X 66.0108 37.0430 58.9110
X 66.0108 37.0430 59.6110
X 66.0108 37.0430 60.3110
X 66.0108 37.0430 61.0110
X 66.0108 37.0430 61.7110
X 66.0108 37.0430 62.4110
X 66.0108 37.0430 63.1110
X 66.0108 37.0430 63.8110
X 66.7108 37.0430 48.4110
X 66.7108 37.0430 49.1110
X 66.7108 37.0430 49.8110
X 66.7108 37.0430 50.5110
X 66.7108 37.0430 51.2110
X 66.7108 37.0430 51.9110
X 66.7108 37.0430 52.6110
X 66.7108 37.0430 53.3110
X 66.7108 37.0430 54.0110
X 66.7108 37.0430 54.7110
X 66.7108 37.0430 55.4110
X 66.7108 37.0430 56.1110
X 66.7108 37.0430 56.8110
X 66.7108 37.0430 57.5110
X 66.7108 37.0430 58.2110
X 66.7108 37.0430 58.9110
X 66.7108 37.0430 59.6110
X 66.7108 37.0430 60.3110
X 66.7108 37.0430 61.0110
X 66.7108 37.0430 61.7110
X 66.7108 37.0430 62.4110
X 66.7108 37.0430 63.1110
X 67.4108 37.0430 49.1110
X 67.4108 37.0430 49.8110
X 67.4108 37.0430 50.5110
X 67.4108 37.0430 51.2110
X 67.4108 37.0430 51.9110
X 67.4108 37.0430 52.6110
X 67.4108 37.0430 53.3110
X 67.4108 37.0430 54.0110
X 67.4108 37.0430 54.7110
X 67.4108 37.0430 55.4110
X 67.4108 37.0430 56.1110
X 67.4108 37.0430 56.8110
X 67.4108 37.0430 57.5110
X 67.4108 37.0430 58.2110
X 67.4108 37.0430 58.9110
X 67.4108 37.0430 59.6110
X 67.4108 37.0430 60.3110
X 67.4108 37.0430 61.0110
X 67.4108 37.0430 61.7110
X 67.4108 37.0430 62.4110
X 68.1108 37.0430 49.8110
X 68.1108 37.0430 50.5110
X 68.1108 37.0430 51.2110
X 68.1108 37.0430 51.9110
X 68.1108 37.0430 52.6110
X 68.1108 37.0430 53.3110
X 68.1108 37.0430 54.0110
X 68.1108 37.0430 54.7110
X 68.1108 37.0430 55.4110
X 68.1108 37.0430 56.1110
X 68.1108 37.0430 56.8110
X 68.1108 37.0430 57.5110
X 68.1108 37.0430 58.2110
X 68.1108 37.0430 58.9110
X 68.1108 37.0430 59.6110
X 68.1108 37.0430 60.3110
X 68.1108 37.0430 61.0110
X 68.1108 37.0430 61.7110
X 68.8108 37.0430 51.9110
X 68.8108 37.0430 52.6110
X 68.8108 37.0430 53.3110
X 68.8108 37.0430 54.0110
X 68.8108 37.0430 54.7110
X 68.8108 37.0430 55.4110
X 68.8108 37.0430 56.1110
X 68.8108 37.0430 56.8110
X 68.8108 37.0430 57.5110
X 68.8108 37.0430 58.2110
X 68.8108 37.0430 58.9110
X 68.8108 37.0430 59.6110
X 68.8108 37.0430 60.3110
X 69.5108 37.0430 56.8110
X 69.5108 37.0430 57.5110
X 48.5108 37.7430 53.3110
X 48.5108 37.7430 54.0110
X 48.5108 37.7430 54.7110
X 48.5108 37.7430 55.4110
X 48.5108 37.7430 56.1110
X 48.5108 37.7430 56.8110
X 48.5108 37.7430 57.5110
X 48.5108 37.7430 58.2110
X 48.5108 37.7430 58.9110
X 48.5108 37.7430 59.6110
X 49.2108 37.7430 51.2110
X 49.2108 37.7430 51.9110
X 49.2108 37.7430 52.6110
X 49.2108 37.7430 53.3110
X 49.2108 37.7430 54.0110
X 49.2108 37.7430 54.7110
X 49.2108 37.7430 55.4110
X 49.2108 37.7430 56.1110
X 49.2108 37.7430 56.8110
X 49.2108 37.7430 57.5110
X 49.2108 37.7430 58.2110
X 49.2108 37.7430 58.9110
X 49.2108 37.7430 59.6110
X 49.2108 37.7430 60.3110
X 49.2108 37.7430 61.0110
X 49.9108 37.7430 49.8110
X 49.9108 37.7430 50.5110
X 49.9108 37.7430 51.2110
X 49.9108 37.7430 51.9110
X 49.9108 37.7430 52.6110
X 49.9108 37.7430 53.3110
X 49.9108 37.7430 54.0110
X 49.9108 37.7430 54.7110
X 49.9108 37.7430 55.4110
X 49.9108 37.7430 56.1110
X 49.9108 37.7430 56.8110
X 49.9108 37.7430 57.5110
X 49.9108 37.7430 58.2110
X 49.9108 37.7430 58.9110
X 49.9108 37.7430 59.6110
X 49.9108 37.7430 60.3110
X 49.9108 37.7430 61.0110
X 49.9108 37.7430 61.7110
X 49.9108 37.7430 62.4110
X 50.6108 37.7430 48.4110
X 50.6108 37.7430 49.1110
X 50.6108 37.7430 49.8110
X 50.6108 37.7430 50.5110
X 50.6108 37.7430 51.2110
X 50.6108 37.7430 51.9110
X 50.6108 37.7430 52.6110
X 50.6108 37.7430 53.3110
X 50.6108 37.7430 54.0110
X 50.6108 37.7430 54.7110
X 50.6108 37.7430 55.4110
X 50.6108 37.7430 56.1110
X 50.6108 37.7430 56.8110
X 50.6108 37.7430 57.5110
X 50.6108 37.7430 58.2110
X 50.6108 37.7430 58.9110
X 50.6108 37.7430 59.6110
X 50.6108 37.7430 60.3110
X 50.6108 37.7430 61.0110
X 50.6108 37.7430 61.7110
X 50.6108 37.7430 62.4110
X 50.6108 37.7430 63.1110
X 51.3108 37.7430 47.7110
X 51.3108 37.7430 48.4110
X 51.3108 37.7430 49.1110
X 51.3108 37.7430 49.8110
X 51.3108 37.7430 50.5110
X 51.3108 37.7430 51.2110
X 51.3108 37.7430 51.9110
X 51.3108 37.7430 52.6110
X 51.3108 37.7430 53.3110
X 51.3108 37.7430 54.0110
X 51.3108 37.7430 54.7110
X 51.3108 37.7430 55.4110
X 51.3108 37.7430 56.1110
X 51.3108 37.7430 56.8110
X 51.3108 37.7430 57.5110
X 51.3108 37.7430 58.2110
X 51.3108 37.7430 58.9110
X 51.3108 37.7430 59.6110
X 51.3108 37.7430 60.3110
X 51.3108 37.7430 61.0110
X 51.3108 37.7430 61.7110
X 51.3108 37.7430 62.4110
X 51.3108 37.7430 63.1110
X 51.3108 37.7430 63.8110
X 52.0108 37.7430 47.0110
X 52.0108 37.7430 47.7110
X 52.0108 37.7430 48.4110
X 52.0108 37.7430 49.1110
X 52.0108 37.7430 49.8110
X 52.0108 37.7430 50.5110
X 52.0108 37.7430 51.2110
X 52.0108 37.7430 51.9110
X 52.0108 37.7430 52.6110
X 52.0108 37.7430 53.3110
X 52.0108 37.7430 54.0110
X 52.0108 37.7430 54.7110
X 52.0108 37.7430 55.4110
X 52.0108 37.7430 56.1110
X 52.0108 37.7430 56.8110
X 52.0108 37.7430 57.5110
X 52.0108 37.7430 58.2110
X 52.0108 37.7430 58.9110
X 52.0108 37.7430 59.6110
X 52.0108 37.7430 60.3110
X 52.0108 37.7430 61.0110
X 52.0108 37.7430 61.7110
X 52.0108 37.7430 62.4110
X 52.0108 37.7430 63.1110
X 52.0108 37.7430 63.8110
X 52.7108 37.7430 46.3110
X 52.7108 37.7430 47.0110
X 52.7108 37.7430 47.7110
X 52.7108 37.7430 48.4110
X 52.7108 37.7430 49.1110
X 52.7108 37.7430 49.8110
X 52.7108 37.7430 50.5110
X 52.7108 37.7430 51.2110
X 52.7108 37.7430 51.9110
X 52.7108 37.7430 52.6110
X 52.7108 37.7430 53.3110
X 52.7108 37.7430 54.0110
X 52.7108 37.7430 54.7110
X 52.7108 37.7430 55.4110
X 52.7108 37.7430 56.1110
X 52.7108 37.7430 56.8110
X 52.7108 37.7430 57.5110
X 52.7108 37.7430 58.2110
X 52.7108 37.7430 58.9110
X 52.7108 37.7430 59.6110
X 52.7108 37.7430 60.3110
X 52.7108 37.7430 61.0110
X 52.7108 37.7430 61.7110
X 52.7108 37.7430 62.4110
X 52.7108 37.7430 63.1110
X 52.7108 37.7430 63.8110
X 52.7108 37.7430 64.5110
X 53.4108 37.7430 46.3110
X 53.4108 37.7430 47.0110
X 53.4108 37.7430 47.7110
X 53.4108 37.7430 48.4110
X 53.4108 37.7430 49.1110
X 53.4108 37.7430 49.8110
X 53.4108 37.7430 50.5110
X 53.4108 37.7430 51.2110
X 53.4108 37.7430 51.9110
X 53.4108 37.7430 52.6110
X 53.4108 37.7430 53.3110
X 53.4108 37.7430 54.0110
X 53.4108 37.7430 54.7110
X 53.4108 37.7430 55.4110
X 53.4108 37.7430 56.1110
X 53.4108 37.7430 56.8110
X 53.4108 37.7430 57.5110
X 53.4108 37.7430 58.2110
X 53.4108 37.7430 58.9110
X 53.4108 37.7430 59.6110
X 53.4108 37.7430 60.3110
X 53.4108 37.7430 61.0110
X 53.4108 37.7430 61.7110
X 53.4108 37.7430 62.4110
X 53.4108 37.7430 63.1110
X 53.4108 37.7430 63.8110
X 53.4108 37.7430 64.5110
X 54.1108 37.7430 45.6110
X 54.1108 37.7430 46.3110
X 54.1108 37.7430 47.0110
X 54.1108 37.7430 47.7110
X 54.1108 37.7430 48.4110
X 54.1108 37.7430 49.1110
X 54.1108 37.7430 49.8110
X 54.1108 37.7430 50.5110
X 54.1108 37.7430 51.2110
X 54.1108 37.7430 51.9110
X 54.1108 37.7430 52.6110
X 54.1108 37.7430 53.3110
X 54.1108 37.7430 54.0110
X 54.1108 37.7430 54.7110
X 54.1108 37.7430 55.4110
X 54.1108 37.7430 58.9110
X 54.1108 37.7430 59.6110
X 54.1108 37.7430 60.3110
X 54.1108 37.7430 61.0110
X 54.1108 37.7430 61.7110
X 54.1108 37.7430 62.4110
X 54.1108 37.7430 63.1110
X 54.1108 37.7430 63.8110
X 54.1108 37.7430 64.5110
X 54.1108 37.7430 65.2110
X 54.8108 37.7430 45.6110
X 54.8108 37.7430 46.3110
X 54.8108 37.7430 47.0110
X 54.8108 37.7430 47.7110
X 54.8108 37.7430 48.4110
X 54.8108 37.7430 49.1110
X 54.8108 37.7430 49.8110
X 54.8108 37.7430 50.5110
X 54.8108 37.7430 51.2110
X 54.8108 37.7430 51.9110
X 54.8108 37.7430 52.6110
X 54.8108 37.7430 53.3110
X 54.8108 37.7430 54.0110
X 54.8108 37.7430 54.7110
X 54.8108 37.7430 59.6110
X 54.8108 37.7430 60.3110
X 54.8108 37.7430 61.0110
X 54.8108 37.7430 61.7110
X 54.8108 37.7430 62.4110
X 54.8108 37.7430 63.1110
X 54.8108 37.7430 63.8110
X 54.8108 37.7430 64.5110
X 54.8108 37.7430 65.2110
X 55.5108 37.7430 45.6110
X 55.5108 37.7430 46.3110
X 55.5108 37.7430 47.0110
X 55.5108 37.7430 47.7110
X 55.5108 37.7430 48.4110
X 55.5108 37.7430 49.1110
X 55.5108 37.7430 49.8110
X 55.5108 37.7430 50.5110
X 55.5108 37.7430 51.2110
X 55.5108 37.7430 51.9110
X 55.5108 37.7430 52.6110
X 55.5108 37.7430 53.3110
X 55.5108 37.7430 54.0110
X 55.5108 37.7430 60.3110
X 55.5108 37.7430 61.0110
X 55.5108 37.7430 61.7110
X 55.5108 37.7430 62.4110
X 55.5108 37.7430 63.1110
X 55.5108 37.7430 63.8110
X 55.5108 37.7430 64.5110
X 55.5108 37.7430 65.2110
X 56.2108 37.7430 45.6110
X 56.2108 37.7430 46.3110
X 56.2108 37.7430 47.0110
X 56.2108 37.7430 47.7110
X 56.2108 37.7430 48.4110
X 56.2108 37.7430 49.1110
X 56.2108 37.7430 49.8110
X 56.2108 37.7430 50.5110
X 56.2108 37.7430 51.2110
X 56.2108 37.7430 51.9110
X 56.2108 37.7430 52.6110
X 56.2108 37.7430 53.3110
X 56.2108 37.7430 54.0110
X 56.2108 37.7430 60.3110
X 56.2108 37.7430 61.0110
X 56.2108 37.7430 61.7110
X 56.2108 37.7430 62.4110
X 56.2108 37.7430 63.1110
X 56.2108 37.7430 63.8110
X 56.2108 37.7430 64.5110
X 56.2108 37.7430 65.2110
X 56.9108 37.7430 45.6110
X 56.9108 37.7430 46.3110
X 56.9108 37.7430 47.0110
X 56.9108 37.7430 47.7110
X 56.9108 37.7430 48.4110
X 56.9108 37.7430 49.1110
X 56.9108 37.7430 49.8110
X 56.9108 37.7430 50.5110
X 56.9108 37.7430 51.2110
X 56.9108 37.7430 51.9110
X 56.9108 37.7430 52.6110
X 56.9108 37.7430 53.3110
X 56.9108 37.7430 60.3110
X 56.9108 37.7430 61.0110
X 56.9108 37.7430 61.7110
X 56.9108 37.7430 62.4110
X 56.9108 37.7430 63.1110
X 56.9108 37.7430 63.8110
X 56.9108 37.7430 64.5110
X 56.9108 37.7430 65.2110
X 57.6108 37.7430 45.6110
X 57.6108 37.7430 46.3110
X 57.6108 37.7430 47.0110
X 57.6108 37.7430 47.7110
X 57.6108 37.7430 48.4110
X 57.6108 37.7430 49.1110
X 57.6108 37.7430 49.8110
X 57.6108 37.7430 50.5110
X 57.6108 37.7430 51.2110
X 57.6108 37.7430 51.9110
X 57.6108 37.7430 52.6110
X 57.6108 37.7430 53.3110
X 57.6108 37.7430 60.3110
X 57.6108 37.7430 61.0110
X 57.6108 37.7430 61.7110
X 57.6108 37.7430 62.4110
X 57.6108 37.7430 63.1110
X 57.6108 37.7430 63.8110
X 57.6108 37.7430 64.5110
X 57.6108 37.7430 65.2110
X 58.3108 37.7430 45.6110
X 58.3108 37.7430 46.3110
X 58.3108 37.7430 47.0110
X 58.3108 37.7430 47.7110
X 58.3108 37.7430 48.4110
X 58.3108 37.7430 49.1110
X 58.3108 37.7430 49.8110
X 58.3108 37.7430 50.5110
X 58.3108 37.7430 51.2110
X 58.3108 37.7430 51.9110
X 58.3108 37.7430 52.6110
X 58.3108 37.7430 60.3110
X 58.3108 37.7430 61.0110
X 58.3108 37.7430 61.7110
X 58.3108 37.7430 62.4110
X 58.3108 37.7430 63.1110
X 58.3108 37.7430 63.8110
X 58.3108 37.7430 64.5110
X 58.3108 37.7430 65.2110
X 59.0108 37.7430 45.6110
X 59.0108 37.7430 46.3110
X 59.0108 37.7430 47.0110
X 59.0108 37.7430 47.7110
X 59.0108 37.7430 48.4110
X 59.0108 37.7430 49.1110
X 59.0108 37.7430 49.8110
X 59.0108 37.7430 50.5110
X 59.0108 37.7430 51.2110
X 59.0108 37.7430 51.9110
X 59.0108 37.7430 52.6110
X 59.0108 37.7430 60.3110
X 59.0108 37.7430 61.0110
X 59.0108 37.7430 61.7110
X 59.0108 37.7430 62.4110
X 59.0108 37.7430 63.1110
X 59.0108 37.7430 63.8110
X 59.0108 37.7430 64.5110
X 59.0108 37.7430 65.2110
X 59.7108 37.7430 45.6110
X 59.7108 37.7430 46.3110
X 59.7108 37.7430 47.0110
X 59.7108 37.7430 47.7110
X 59.7108 37.7430 48.4110
X 59.7108 37.7430 49.1110
X 59.7108 37.7430 49.8110
X 59.7108 37.7430 50.5110
X 59.7108 37.7430 51.2110
X 59.7108 37.7430 51.9110
X 59.7108 37.7430 52.6110
X 59.7108 37.7430 60.3110
X 59.7108 37.7430 61.0110
X 59.7108 37.7430 61.7110
X 59.7108 37.7430 62.4110
X 59.7108 37.7430 63.1110
X 59.7108 37.7430 63.8110
X 59.7108 37.7430 64.5110
X 59.7108 37.7430 65.2110
X 60.4108 37.7430 45.6110
X 60.4108 37.7430 46.3110
X 60.4108 37.7430 47.0110
X 60.4108 37.7430 47.7110
X 60.4108 37.7430 48.4110
X 60.4108 37.7430 49.1110
X 60.4108 37.7430 49.8110
X 60.4108 37.7430 50.5110
X 60.4108 37.7430 51.2110
X 60.4108 37.7430 51.9110
X 60.4108 37.7430 52.6110
X 60.4108 37.7430 53.3110
X 60.4108 37.7430 60.3110
X 60.4108 37.7430 61.0110
X 60.4108 37.7430 61.7110
X 60.4108 37.7430 62.4110
X 60.4108 37.7430 63.1110
X 60.4108 37.7430 63.8110
X 60.4108 37.7430 64.5110
X 60.4108 37.7430 65.2110
X 61.1108 37.7430 45.6110
X 61.1108 37.7430 46.3110
X 61.1108 37.7430 47.0110
X 61.1108 37.7430 47.7110
X 61.1108 37.7430 48.4110
X 61.1108 37.7430 49.1110
X 61.1108 37.7430 49.8110
X 61.1108 37.7430 50.5110
X 61.1108 37.7430 51.2110
X 61.1108 37.7430 51.9110
X 61.1108 37.7430 52.6110
X 61.1108 37.7430 53.3110
X 61.1108 37.7430 59.6110
X 61.1108 37.7430 60.3110
X 61.1108 37.7430 61.0110
X 61.1108 37.7430 61.7110
X 61.1108 37.7430 62.4110
X 61.1108 37.7430 63.1110
X 61.1108 37.7430 63.8110
X 61.1108 37.7430 64.5110
X 61.1108 37.7430 65.2110
X 61.8108 37.7430 45.6110
X 61.8108 37.7430 46.3110
X 61.8108 37.7430 47.0110
X 61.8108 37.7430 47.7110
X 61.8108 37.7430 48.4110
X 61.8108 37.7430 49.1110
X 61.8108 37.7430 49.8110
X 61.8108 37.7430 50.5110
X 61.8108 37.7430 51.2110
X 61.8108 37.7430 51.9110
X 61.8108 37.7430 52.6110
X 61.8108 37.7430 53.3110
X 61.8108 37.7430 54.0110
X 61.8108 37.7430 54.7110
X 61.8108 37.7430 58.9110
X 61.8108 37.7430 59.6110
X 61.8108 37.7430 60.3110
X 61.8108 37.7430 61.0110
X 61.8108 37.7430 61.7110
X 61.8108 37.7430 62.4110
X 61.8108 37.7430 63.1110
X 61.8108 37.7430 63.8110
X 61.8108 37.7430 64.5110
X 61.8108 37.7430 65.2110
X 62.5108 37.7430 45.6110
X 62.5108 37.7430 46.3110
X 62.5108 37.7430 47.0110
X 62.5108 37.7430 47.7110
X 62.5108 37.7430 48.4110
X 62.5108 37.7430 49.1110
X 62.5108 37.7430 49.8110
X 62.5108 37.7430 50.5110
X 62.5108 37.7430 51.2110
X 62.5108 37.7430 51.9110
X 62.5108 37.7430 52.6110
X 62.5108 37.7430 53.3110
X 62.5108 37.7430 54.0110
X 62.5108 37.7430 54.7110
X 62.5108 37.7430 55.4110
X 62.5108 37.7430 56.1110
X 62.5108 37.7430 56.8110
X 62.5108 37.7430 57.5110
X 62.5108 37.7430 58.2110
X 62.5108 37.7430 58.9110
X 62.5108 37.7430 59.6110
X 62.5108 37.7430 60.3110
X 62.5108 37.7430 61.0110
X 62.5108 37.7430 61.7110
X 62.5108 37.7430 62.4110
X 62.5108 37.7430 63.1110
X 62.5108 37.7430 63.8110
X 62.5108 37.7430 64.5110
X 62.5108 37.7430 65.2110
X 63.2108 37.7430 46.3110
X 63.2108 37.7430 47.0110
X 63.2108 37.7430 47.7110
X 63.2108 37.7430 48.4110
X 63.2108 37.7430 49.1110
X 63.2108 37.7430 49.8110
X 63.2108 37.7430 50.5110
X 63.2108 37.7430 51.2110
X 63.2108 37.7430 51.9110
X 63.2108 37.7430 52.6110
X 63.2108 37.7430 53.3110
X 63.2108 37.7430 54.0110
X 63.2108 37.7430 54.7110
X 63.2108 37.7430 55.4110
X 63.2108 37.7430 56.1110
X 63.2108 37.7430 56.8110
X 63.2108 37.7430 57.5110
X 63.2108 37.7430 58.2110
X 63.2108 37.7430 58.9110
X 63.2108 37.7430 59.6110
X 63.2108 37.7430 60.3110
X 63.2108 37.7430 61.0110
X 63.2108 37.7430 61.7110
X 63.2108 37.7430 62.4110
X 63.2108 37.7430 63.1110
X 63.2108 37.7430 63.8110
X 63.2108 37.7430 64.5110
X 63.2108 37.7430 65.2110
X 63.9108 37.7430 46.3110
X 63.9108 37.7430 47.0110
X 63.9108 37.7430 47.7110
X 63.9108 37.7430 48.4110
X 63.9108 37.7430 49.1110
X 63.9108 37.7430 49.8110
X 63.9108 37.7430 50.5110
X 63.9108 37.7430 51.2110
X 63.9108 37.7430 51.9110
X 63.9108 37.7430 52.6110
X 63.9108 37.7430 53.3110
X 63.9108 37.7430 54.0110
X 63.9108 37.7430 54.7110
X 63.9108 37.7430 55.4110
X 63.9108 37.7430 56.1110
X 63.9108 37.7430 56.8110
X 63.9108 37.7430 57.5110
X 63.9108 37.7430 58.2110
X 63.9108 37.7430 58.9110
X 63.9108 37.7430 59.6110
X 63.9108 37.7430 60.3110
X 63.9108 37.7430 61.0110
X 63.9108 37.7430 61.7110
X 63.9108 37.7430 62.4110
X 63.9108 37.7430 63.1110
X 63.9108 37.7430 63.8110
X 63.9108 37.7430 64.5110
X 64.6108 37.7430 47.0110
X 64.6108 37.7430 47.7110
X 64.6108 37.7430 48.4110
X 64.6108 37.7430 49.1110
X 64.6108 37.7430 49.8110
X 64.6108 37.7430 50.5110
X 64.6108 37.7430 51.2110
X 64.6108 37.7430 51.9110
X 64.6108 37.7430 52.6110
X 64.6108 37.7430 53.3110
X 64.6108 37.7430 54.0110
X 64.6108 37.7430 54.7110
X 64.6108 37.7430 55.4110
X 64.6108 37.7430 56.1110
X 64.6108 37.7430 56.8110
X 64.6108 37.7430 57.5110
X 64.6108 37.7430 58.2110
X 64.6108 37.7430 58.9110
X 64.6108 37.7430 59.6110
X 64.6108 37.7430 60.3110
X 64.6108 37.7430 61.0110
X 64.6108 37.7430 61.7110
X 64.6108 37.7430 62.4110
X 64.6108 37.7430 63.1110
X 64.6108 37.7430 63.8110
X 64.6108 37.7430 64.5110
X 65.3108 37.7430 47.7110
X 65.3108 37.7430 48.4110
X 65.3108 37.7430 49.1110
X 65.3108 37.7430 49.8110
X 65.3108 37.7430 50.5110
X 65.3108 37.7430 51.2110
X 65.3108 37.7430 51.9110
X 65.3108 37.7430 52.6110
X 65.3108 37.7430 53.3110
X 65.3108 37.7430 54.0110
X 65.3108 37.7430 54.7110
X 65.3108 37.7430 55.4110
X 65.3108 37.7430 56.1110
X 65.3108 37.7430 56.8110
X 65.3108 37.7430 57.5110
X 65.3108 37.7430 58.2110
X 65.3108 37.7430 58.9110
X 65.3108 37.7430 59.6110
X 65.3108 37.7430 60.3110
X 65.3108 37.7430 61.0110
X 65.3108 37.7430 61.7110
X 65.3108 37.7430 62.4110
X 65.3108 37.7430 63.1110
X 65.3108 37.7430 63.8110
X 66.0108 37.7430 48.4110
X 66.0108 37.7430 49.1110
X 66.0108 37.7430 49.8110
X 66.0108 37.7430 50.5110
X 66.0108 37.7430 51.2110
X 66.0108 37.7430 51.9110
X 66.0108 37.7430 52.6110
X 66.0108 37.7430 53.3110
X 66.0108 37.7430 54.0110
X 66.0108 37.7430 54.7110
X 66.0108 37.7430 55.4110
X 66.0108 37.7430 56.1110
X 66.0108 37.7430 56.8110
X 66.0108 37.7430 57.5110
X 66.0108 37.7430 58.2110
X 66.0108 37.7430 58.9110
X 66.0108 37.7430 59.6110
X 66.0108 37.7430 60.3110
X 66.0108 37.7430 61.0110
X 66.0108 37.7430 61.7110
X 66.0108 37.7430 62.4110
X 66.0108 37.7430 63.1110
X 66.0108 37.7430 63.8110
X 66.7108 37.7430 49.1110
X 66.7108 37.7430 49.8110
X 66.7108 37.7430 50.5110
X 66.7108 37.7430 51.2110
X 66.7108 37.7430 51.9110
X 66.7108 37.7430 52.6110
X 66.7108 37.7430 53.3110
X 66.7108 37.7430 54.0110
X 66.7108 37.7430 54.7110
X 66.7108 37.7430 55.4110
X 66.7108 37.7430 56.1110
X 66.7108 37.7430 56.8110
X 66.7108 37.7430 57.5110
X 66.7108 37.7430 58.2110
X 66.7108 37.7430 58.9110
X 66.7108 37.7430 59.6110
X 66.7108 37.7430 60.3110
X 66.7108 37.7430 61.0110
X 66.7108 37.7430 61.7110
X 66.7108 37.7430 62.4110
X 66.7108 37.7430 63.1110
X 67.4108 37.7430 49.8110
X 67.4108 37.7430 50.5110
X 67.4108 37.7430 51.2110
X 67.4108 37.7430 51.9110
X 67.4108 37.7430 52.6110
X 67.4108 37.7430 53.3110
X 67.4108 37.7430 54.0110
X 67.4108 37.7430 54.7110
X 67.4108 37.7430 55.4110
X 67.4108 37.7430 56.1110
X 67.4108 37.7430 56.8110
X 67.4108 37.7430 57.5110
X 67.4108 37.7430 58.2110
X 67.4108 37.7430 58.9110
X 67.4108 37.7430 59.6110
X 67.4108 37.7430 60.3110
X 67.4108 37.7430 61.0110
X 67.4108 37.7430 61.7110
X 67.4108 37.7430 62.4110
X 68.1108 37.7430 51.2110
X 68.1108 37.7430 51.9110
X 68.1108 37.7430 52.6110
X 68.1108 37.7430 53.3110
X 68.1108 37.7430 54.0110
X 68.1108 37.7430 54.7110
X 68.1108 37.7430 55.4110
X 68.1108 37.7430 56.1110
X 68.1108 37.7430 56.8110
X 68.1108 37.7430 57.5110
X 68.1108 37.7430 58.2110
X 68.1108 37.7430 58.9110
X 68.1108 37.7430 59.6110
X 68.1108 37.7430 60.3110
X 68.1108 37.7430 61.0110
X 68.8108 37.7430 54.0110
X 68.8108 37.7430 54.7110
X 68.8108 37.7430 55.4110
X 68.8108 37.7430 56.1110
X 68.8108 37.7430 56.8110
X 68.8108 37.7430 57.5110
X 68.8108 37.7430 58.2110
X 68.8108 37.7430 58.9110
X 68.8108 37.7430 59.6110
X 48.5108 38.4430 55.4110
X 48.5108 38.4430 56.1110
X 48.5108 38.4430 56.8110
X 48.5108 38.4430 57.5110
X 48.5108 38.4430 58.2110
X 48.5108 38.4430 58.9110
X 49.2108 38.4430 52.6110
X 49.2108 38.4430 53.3110
X 49.2108 38.4430 54.0110
X 49.2108 38.4430 54.7110
X 49.2108 38.4430 55.4110
X 49.2108 38.4430 56.1110
X 49.2108 38.4430 56.8110
X 49.2108 38.4430 57.5110
X 49.2108 38.4430 58.2110
X 49.2108 38.4430 58.9110
X 49.2108 38.4430 59.6110
X 49.2108 38.4430 60.3110
X 49.2108 38.4430 61.0110
X 49.9108 38.4430 50.5110
X 49.9108 38.4430 51.2110
X 49.9108 38.4430 51.9110
X 49.9108 38.4430 52.6110
X 49.9108 38.4430 53.3110
X 49.9108 38.4430 54.0110
X 49.9108 38.4430 54.7110
X 49.9108 38.4430 55.4110
X 49.9108 38.4430 56.1110
X 49.9108 38.4430 56.8110
X 49.9108 38.4430 57.5110
X 49.9108 38.4430 58.2110
X 49.9108 38.4430 58.9110
X 49.9108 38.4430 59.6110
X 49.9108 38.4430 60.3110
X 49.9108 38.4430 61.0110
X 49.9108 38.4430 61.7110
X 50.6108 38.4430 49.1110
X 50.6108 38.4430 49.8110
X 50.6108 38.4430 50.5110
X 50.6108 38.4430 51.2110
X 50.6108 38.4430 51.9110
X 50.6108 38.4430 52.6110
X 50.6108 38.4430 53.3110
X 50.6108 38.4430 54.0110
X 50.6108 38.4430 54.7110
X 50.6108 38.4430 55.4110
X 50.6108 38.4430 56.1110
X 50.6108 38.4430 56.8110
X 50.6108 38.4430 57.5110
X 50.6108 38.4430 58.2110
X 50.6108 38.4430 58.9110
X 50.6108 38.4430 59.6110
X 50.6108 38.4430 60.3110
X 50.6108 38.4430 61.0110
X 50.6108 38.4430 61.7110
X 50.6108 38.4430 62.4110
X 51.3108 38.4430 48.4110
X 51.3108 38.4430 49.1110
X 51.3108 38.4430 49.8110
X 51.3108 38.4430 50.5110
X 51.3108 38.4430 51.2110
X 51.3108 38.4430 51.9110
X 51.3108 38.4430 52.6110
X 51.3108 38.4430 53.3110
X 51.3108 38.4430 54.0110
X 51.3108 38.4430 54.7110
X 51.3108 38.4430 55.4110
X 51.3108 38.4430 56.1110
X 51.3108 38.4430 56.8110
X 51.3108 38.4430 57.5110
X 51.3108 38.4430 58.2110
X 51.3108 38.4430 58.9110
X 51.3108 38.4430 59.6110
X 51.3108 38.4430 60.3110
X 51.3108 38.4430 61.0110
X 51.3108 38.4430 61.7110
X 51.3108 38.4430 62.4110
X 51.3108 38.4430 63.1110
X 52.0108 38.4430 47.7110
X 52.0108 38.4430 48.4110
X 52.0108 38.4430 49.1110
X 52.0108 38.4430 49.8110
X 52.0108 38.4430 50.5110
X 52.0108 38.4430 51.2110
X 52.0108 38.4430 51.9110
X 52.0108 38.4430 52.6110
X 52.0108 38.4430 53.3110
X 52.0108 38.4430 54.0110
X 52.0108 38.4430 54.7110
X 52.0108 38.4430 55.4110
X 52.0108 38.4430 56.1110
X 52.0108 38.4430 56.8110
X 52.0108 38.4430 57.5110
X 52.0108 38.4430 58.2110
X 52.0108 38.4430 58.9110
X 52.0108 38.4430 59.6110
X 52.0108 38.4430 60.3110
X 52.0108 38.4430 61.0110
X 52.0108 38.4430 61.7110
X 52.0108 38.4430 62.4110
X 52.0108 38.4430 63.1110
X 52.0108 38.4430 63.8110
X 52.7108 38.4430 47.0110
X 52.7108 38.4430 47.7110
X 52.7108 38.4430 48.4110
X 52.7108 38.4430 49.1110
X 52.7108 38.4430 49.8110
X 52.7108 38.4430 50.5110
X 52.7108 38.4430 51.2110
X 52.7108 38.4430 51.9110
X 52.7108 38.4430 52.6110
X 52.7108 38.4430 53.3110
X 52.7108 38.4430 54.0110
X 52.7108 38.4430 54.7110
X 52.7108 38.4430 55.4110
X 52.7108 38.4430 56.1110
X 52.7108 38.4430 56.8110
X 52.7108 38.4430 57.5110
X 52.7108 38.4430 58.2110
X 52.7108 38.4430 58.9110
X 52.7108 38.4430 59.6110
X 52.7108 38.4430 60.3110
X 52.7108 38.4430 61.0110
X 52.7108 38.4430 61.7110
X 52.7108 38.4430 62.4110
X 52.7108 38.4430 63.1110
X 52.7108 38.4430 63.8110
X 52.7108 38.4430 64.5110
X 53.4108 38.4430 46.3110
X 53.4108 38.4430 47.0110
X 53.4108 38.4430 47.7110
X 53.4108 38.4430 48.4110
X 53.4108 38.4430 49.1110
X 53.4108 38.4430 49.8110
X 53.4108 38.4430 50.5110
X 53.4108 38.4430 51.2110
X 53.4108 38.4430 51.9110
X 53.4108 38.4430 52.6110
X 53.4108 38.4430 53.3110
X 53.4108 38.4430 54.0110
X 53.4108 38.4430 54.7110
X 53.4108 38.4430 55.4110
X 53.4108 38.4430 56.1110
X 53.4108 38.4430 56.8110
X 53.4108 38.4430 57.5110
X 53.4108 38.4430 58.2110
X 53.4108 38.4430 58.9110
X 53.4108 38.4430 59.6110
X 53.4108 38.4430 60.3110
X 53.4108 38.4430 61.0110
X 53.4108 38.4430 61.7110
X 53.4108 38.4430 62.4110
X 53.4108 38.4430 63.1110
X 53.4108 38.4430 63.8110
X 53.4108 38.4430 64.5110
X 54.1108 38.4430 46.3110
X 54.1108 38.4430 47.0110
X 54.1108 38.4430 47.7110
X 54.1108 38.4430 48.4110
X 54.1108 38.4430 49.1110
X 54.1108 38.4430 49.8110
X 54.1108 38.4430 50.5110
X 54.1108 38.4430 51.2110
X 54.1108 38.4430 51.9110
X 54.1108 38.4430 52.6110
X 54.1108 38.4430 53.3110
X 54.1108 38.4430 54.0110
X 54.1108 38.4430 54.7110
X 54.1108 38.4430 55.4110
X 54.1108 38.4430 56.1110
X 54.1108 38.4430 56.8110
X 54.1108 38.4430 57.5110
X 54.1108 38.4430 58.2110
X 54.1108 38.4430 58.9110
X 54.1108 38.4430 59.6110
X 54.1108 38.4430 60.3110
X 54.1108 38.4430 61.0110
X 54.1108 38.4430 61.7110
X 54.1108 38.4430 62.4110
X 54.1108 38.4430 63.1110
X 54.1108 38.4430 63.8110
X 54.1108 38.4430 64.5110
X 54.8108 38.4430 46.3110
X 54.8108 38.4430 47.0110
X 54.8108 38.4430 47.7110
X 54.8108 38.4430 48.4110
X 54.8108 38.4430 49.1110
X 54.8108 38.4430 49.8110
X 54.8108 38.4430 50.5110
X 54.8108 38.4430 51.2110
X 54.8108 38.4430 51.9110
X 54.8108 38.4430 52.6110
X 54.8108 38.4430 53.3110
X 54.8108 38.4430 54.0110
X 54.8108 38.4430 54.7110
X 54.8108 38.4430 55.4110
X 54.8108 38.4430 58.9110
X 54.8108 38.4430 59.6110
X 54.8108 38.4430 60.3110
X 54.8108 38.4430 61.0110
X 54.8108 38.4430 61.7110
X 54.8108 38.4430 62.4110
X 54.8108 38.4430 63.1110
X 54.8108 38.4430 63.8110
X 54.8108 38.4430 64.5110
X 54.8108 38.4430 65.2110
X 55.5108 38.4430 45.6110
X 55.5108 38.4430 46.3110
X 55.5108 38.4430 47.0110
X 55.5108 38.4430 47.7110
X 55.5108 38.4430 48.4110
X 55.5108 38.4430 49.1110
X 55.5108 38.4430 49.8110
X 55.5108 38.4430 50.5110
X 55.5108 38.4430 51.2110
X 55.5108 38.4430 51.9110
X 55.5108 38.4430 52.6110
X 55.5108 38.4430 53.3110
X 55.5108 38.4430 54.0110
X 55.5108 38.4430 54.7110
X 55.5108 38.4430 59.6110
X 55.5108 38.4430 60.3110
X 55.5108 38.4430 61.0110
X 55.5108 38.4430 61.7110
X 55.5108 38.4430 62.4110
X 55.5108 38.4430 63.1110
X 55.5108 38.4430 63.8110
X 55.5108 38.4430 64.5110
X 55.5108 38.4430 65.2110
X 56.2108 38.4430 45.6110
X 56.2108 38.4430 46.3110
X 56.2108 38.4430 47.0110
X 56.2108 38.4430 47.7110
X 56.2108 38.4430 48.4110
X 56.2108 38.4430 49.1110
X 56.2108 38.4430 49.8110
X 56.2108 38.4430 50.5110
X 56.2108 38.4430 51.2110
X 56.2108 38.4430 51.9110
X 56.2108 38.4430 52.6110
X 56.2108 38.4430 53.3110
X 56.2108 38.4430 54.0110
X 56.2108 38.4430 59.6110
X 56.2108 38.4430 60.3110
X 56.2108 38.4430 61.0110
X 56.2108 38.4430 61.7110
X 56.2108 38.4430 62.4110
X 56.2108 38.4430 63.1110
X 56.2108 38.4430 63.8110
X 56.2108 38.4430 64.5110
X 56.2108 38.4430 65.2110
X 56.9108 38.4430 45.6110
X 56.9108 38.4430 46.3110
X 56.9108 38.4430 47.0110
X 56.9108 38.4430 47.7110
X 56.9108 38.4430 48.4110
X 56.9108 38.4430 49.1110
X 56.9108 38.4430 49.8110
X 56.9108 38.4430 50.5110
X 56.9108 38.4430 51.2110
X 56.9108 38.4430 51.9110
X 56.9108 38.4430 52.6110
X 56.9108 38.4430 53.3110
X 56.9108 38.4430 54.0110
X 56.9108 38.4430 59.6110
X 56.9108 38.4430 60.3110
X 56.9108 38.4430 61.0110
X 56.9108 38.4430 61.7110
X 56.9108 38.4430 62.4110
X 56.9108 38.4430 63.1110
X 56.9108 38.4430 63.8110
X 56.9108 38.4430 64.5110
X 56.9108 38.4430 65.2110
X 57.6108 38.4430 45.6110
X 57.6108 38.4430 46.3110
X 57.6108 38.4430 47.0110
X 57.6108 38.4430 47.7110
X 57.6108 38.4430 48.4110
X 57.6108 38.4430 49.1110
X 57.6108 38.4430 49.8110
X 57.6108 38.4430 50.5110
X 57.6108 38.4430 51.2110
X 57.6108 38.4430 51.9110
X 57.6108 38.4430 52.6110
X 57.6108 38.4430 53.3110
X 57.6108 38.4430 60.3110
X 57.6108 38.4430 61.0110
X 57.6108 38.4430 61.7110
X 57.6108 38.4430 62.4110
X 57.6108 38.4430 63.1110
X 57.6108 38.4430 63.8110
X 57.6108 38.4430 64.5110
X 57.6108 38.4430 65.2110
X 58.3108 38.4430 45.6110
X 58.3108 38.4430 46.3110
X 58.3108 38.4430 47.0110
X 58.3108 38.4430 47.7110
X 58.3108 38.4430 48.4110
X 58.3108 38.4430 49.1110
X 58.3108 38.4430 49.8110
X 58.3108 38.4430 50.5110
X 58.3108 38.4430 51.2110
X 58.3108 38.4430 51.9110
X 58.3108 38.4430 52.6110
X 58.3108 38.4430 53.3110
X 58.3108 38.4430 60.3110
X 58.3108 38.4430 61.0110
X 58.3108 38.4430 61.7110
X 58.3108 38.4430 62.4110
X 58.3108 38.4430 63.1110
X 58.3108 38.4430 63.8110
X 58.3108 38.4430 64.5110
X 58.3108 38.4430 65.2110
X 59.0108 38.4430 45.6110
X 59.0108 38.4430 46.3110
X 59.0108 38.4430 47.0110
X 59.0108 38.4430 47.7110
X 59.0108 38.4430 48.4110
X 59.0108 38.4430 49.1110
X 59.0108 38.4430 49.8110
X 59.0108 38.4430 50.5110
X 59.0108 38.4430 51.2110
X 59.0108 38.4430 51.9110
X 59.0108 38.4430 52.6110
X 59.0108 38.4430 53.3110
X 59.0108 38.4430 60.3110
X 59.0108 38.4430 61.0110
X 59.0108 38.4430 61.7110
X 59.0108 38.4430 62.4110
X 59.0108 38.4430 63.1110
X 59.0108 38.4430 63.8110
X 59.0108 38.4430 64.5110
X 59.0108 38.4430 65.2110
X 59.7108 38.4430 45.6110
X 59.7108 38.4430 46.3110
X 59.7108 38.4430 47.0110
X 59.7108 38.4430 47.7110
X 59.7108 38.4430 48.4110
X 59.7108 38.4430 49.1110
X 59.7108 38.4430 49.8110
X 59.7108 38.4430 50.5110
X 59.7108 38.4430 51.2110
X 59.7108 38.4430 51.9110
X 59.7108 38.4430 52.6110
X 59.7108 38.4430 53.3110
X 59.7108 38.4430 60.3110
X 59.7108 38.4430 61.0110
X 59.7108 38.4430 61.7110
X 59.7108 38.4430 62.4110
X 59.7108 38.4430 63.1110
X 59.7108 38.4430 63.8110
X 59.7108 38.4430 64.5110
X 59.7108 38.4430 65.2110
X 60.4108 38.4430 45.6110
X 60.4108 38.4430 46.3110
X 60.4108 38.4430 47.0110
X 60.4108 38.4430 47.7110
X 60.4108 38.4430 48.4110
X 60.4108 38.4430 49.1110
X 60.4108 38.4430 49.8110
X 60.4108 38.4430 50.5110
X 60.4108 38.4430 51.2110
X 60.4108 38.4430 51.9110
X 60.4108 38.4430 52.6110
X 60.4108 38.4430 53.3110
X 60.4108 38.4430 59.6110
X 60.4108 38.4430 60.3110
X 60.4108 38.4430 61.0110
X 60.4108 38.4430 61.7110
X 60.4108 38.4430 62.4110
X 60.4108 38.4430 63.1110
X 60.4108 38.4430 63.8110
X 60.4108 38.4430 64.5110
X 60.4108 38.4430 65.2110
X 61.1108 38.4430 45.6110
X 61.1108 38.4430 46.3110
X 61.1108 38.4430 47.0110
X 61.1108 38.4430 47.7110
X 61.1108 38.4430 48.4110
X 61.1108 38.4430 49.1110
X 61.1108 38.4430 49.8110
X 61.1108 38.4430 50.5110
X 61.1108 38.4430 51.2110
X 61.1108 38.4430 51.9110
X 61.1108 38.4430 52.6110
X 61.1108 38.4430 53.3110
X 61.1108 38.4430 54.0110
X 61.1108 38.4430 58.9110
X 61.1108 38.4430 59.6110
X 61.1108 38.4430 60.3110
X 61.1108 38.4430 61.0110
X 61.1108 38.4430 61.7110
X 61.1108 38.4430 62.4110
X 61.1108 38.4430 63.1110
X 61.1108 38.4430 63.8110
X 61.1108 38.4430 64.5110
X 61.1108 38.4430 65.2110
X 61.8108 38.4430 46.3110
X 61.8108 38.4430 47.0110
X 61.8108 38.4430 47.7110
X 61.8108 38.4430 48.4110
X 61.8108 38.4430 49.1110
X 61.8108 38.4430 49.8110
X 61.8108 38.4430 50.5110
X 61.8108 38.4430 51.2110
X 61.8108 38.4430 51.9110
X 61.8108 38.4430 52.6110
X 61.8108 38.4430 53.3110
X 61.8108 38.4430 54.0110
X 61.8108 38.4430 54.7110
X 61.8108 38.4430 55.4110
X 61.8108 38.4430 58.2110
X 61.8108 38.4430 58.9110
X 61.8108 38.4430 59.6110
X 61.8108 38.4430 60.3110
X 61.8108 38.4430 61.0110
X 61.8108 38.4430 61.7110
X 61.8108 38.4430 62.4110
X 61.8108 38.4430 63.1110
X 61.8108 38.4430 63.8110
X 61.8108 38.4430 64.5110
X 61.8108 38.4430 65.2110
X 62.5108 38.4430 46.3110
X 62.5108 38.4430 47.0110
X 62.5108 38.4430 47.7110
X 62.5108 38.4430 48.4110
X 62.5108 38.4430 49.1110
X 62.5108 38.4430 49.8110
X 62.5108 38.4430 50.5110
X 62.5108 38.4430 51.2110
X 62.5108 38.4430 51.9110
X 62.5108 38.4430 52.6110
X 62.5108 38.4430 53.3110
X 62.5108 38.4430 54.0110
X 62.5108 38.4430 54.7110
X 62.5108 38.4430 55.4110
X 62.5108 38.4430 56.1110
X 62.5108 38.4430 56.8110
X 62.5108 38.4430 57.5110
X 62.5108 38.4430 58.2110
X 62.5108 38.4430 58.9110
X 62.5108 38.4430 59.6110
X 62.5108 38.4430 60.3110
X 62.5108 38.4430 61.0110
X 62.5108 38.4430 61.7110
X 62.5108 38.4430 62.4110
X 62.5108 38.4430 63.1110
X 62.5108 38.4430 63.8110
X 62.5108 38.4430 64.5110
X 62.5108 38.4430 65.2110
X 63.2108 38.4430 46.3110
X 63.2108 38.4430 47.0110
X 63.2108 38.4430 47.7110
X 63.2108 38.4430 48.4110
X 63.2108 38.4430 49.1110
X 63.2108 38.4430 49.8110
X 63.2108 38.4430 50.5110
X 63.2108 38.4430 51.2110
X 63.2108 38.4430 51.9110
X 63.2108 38.4430 52.6110
X 63.2108 38.4430 53.3110
X 63.2108 38.4430 54.0110
X 63.2108 38.4430 54.7110
X 63.2108 38.4430 55.4110
X 63.2108 38.4430 56.1110
X 63.2108 38.4430 56.8110
X 63.2108 38.4430 57.5110
X 63.2108 38.4430 58.2110
X 63.2108 38.4430 58.9110
X 63.2108 38.4430 59.6110
X 63.2108 38.4430 60.3110
X 63.2108 38.4430 61.0110
X 63.2108 38.4430 61.7110
X 63.2108 38.4430 62.4110
X 63.2108 38.4430 63.1110
X 63.2108 38.4430 63.8110
X 63.2108 38.4430 64.5110
X 63.9108 38.4430 47.0110
X 63.9108 38.4430 47.7110
X 63.9108 38.4430 48.4110
X 63.9108 38.4430 49.1110
X 63.9108 38.4430 49.8110
X 63.9108 38.4430 50.5110
X 63.9108 38.4430 51.2110
X 63.9108 38.4430 51.9110
X 63.9108 38.4430 52.6110
X 63.9108 38.4430 53.3110
X 63.9108 38.4430 54.0110
X 63.9108 38.4430 54.7110
X 63.9108 38.4430 55.4110
X 63.9108 38.4430 56.1110
X 63.9108 38.4430 56.8110
X 63.9108 38.4430 57.5110
X 63.9108 38.4430 58.2110
X 63.9108 38.4430 58.9110
X 63.9108 38.4430 59.6110
X 63.9108 38.4430 60.3110
X 63.9108 38.4430 61.0110
X 63.9108 38.4430 61.7110
X 63.9108 38.4430 62.4110
X 63.9108 38.4430 63.1110
X 63.9108 38.4430 63.8110
X 63.9108 38.4430 64.5110
X 64.6108 38.4430 47.7110
X 64.6108 38.4430 48.4110
X 64.6108 38.4430 49.1110
X 64.6108 38.4430 49.8110
X 64.6108 38.4430 50.5110
X 64.6108 38.4430 51.2110
X 64.6108 38.4430 51.9110
X 64.6108 38.4430 52.6110
X 64.6108 38.4430 53.3110
X 64.6108 38.4430 54.0110
X 64.6108 38.4430 54.7110
X 64.6108 38.4430 55.4110
X 64.6108 38.4430 56.1110
X 64.6108 38.4430 56.8110
X 64.6108 38.4430 57.5110
X 64.6108 38.4430 58.2110
X 64.6108 38.4430 58.9110
X 64.6108 38.4430 59.6110
X 64.6108 38.4430 60.3110
X 64.6108 38.4430 61.0110
X 64.6108 38.4430 61.7110
X 64.6108 38.4430 62.4110
X 64.6108 38.4430 63.1110
X 64.6108 38.4430 63.8110
X 64.6108 38.4430 64.5110
X 65.3108 38.4430 48.4110
X 65.3108 38.4430 49.1110
X 65.3108 38.4430 49.8110
X 65.3108 38.4430 50.5110
X 65.3108 38.4430 51.2110
X 65.3108 38.4430 51.9110
X 65.3108 38.4430 52.6110
X 65.3108 38.4430 53.3110
X 65.3108 38.4430 54.0110
X 65.3108 38.4430 54.7110
X 65.3108 38.4430 55.4110
X 65.3108 38.4430 56.1110
X 65.3108 38.4430 56.8110
X 65.3108 38.4430 57.5110
X 65.3108 38.4430 58.2110
X 65.3108 38.4430 58.9110
X 65.3108 38.4430 59.6110
X 65.3108 38.4430 60.3110
X 65.3108 38.4430 61.0110
X 65.3108 38.4430 61.7110
X 65.3108 38.4430 62.4110
X 65.3108 38.4430 63.1110
X 65.3108 38.4430 63.8110
X 66.0108 38.4430 49.1110
X 66.0108 38.4430 49.8110
X 66.0108 38.4430 50.5110
X 66.0108 38.4430 51.2110
X 66.0108 38.4430 51.9110
X 66.0108 38.4430 52.6110
X 66.0108 38.4430 53.3110
X 66.0108 38.4430 54.0110
X 66.0108 38.4430 54.7110
X 66.0108 38.4430 55.4110
X 66.0108 38.4430 56.1110
X 66.0108 38.4430 56.8110
X 66.0108 38.4430 57.5110
X 66.0108 38.4430 58.2110
X 66.0108 38.4430 58.9110
X 66.0108 38.4430 59.6110
X 66.0108 38.4430 60.3110
X 66.0108 38.4430 61.0110
X 66.0108 38.4430 61.7110
X 66.0108 38.4430 62.4110
X 66.0108 38.4430 63.1110
X 66.7108 38.4430 49.8110
X 66.7108 38.4430 50.5110
X 66.7108 38.4430 51.2110
X 66.7108 38.4430 51.9110
X 66.7108 38.4430 52.6110
X 66.7108 38.4430 53.3110
X 66.7108 38.4430 54.0110
X 66.7108 38.4430 54.7110
X 66.7108 38.4430 55.4110
X 66.7108 38.4430 56.1110
X 66.7108 38.4430 56.8110
X 66.7108 38.4430 57.5110
X 66.7108 38.4430 58.2110
X 66.7108 38.4430 58.9110
X 66.7108 38.4430 59.6110
X 66.7108 38.4430 60.3110
X 66.7108 38.4430 61.0110
X 66.7108 38.4430 61.7110
X 66.7108 38.4430 62.4110
X 67.4108 38.4430 51.2110
X 67.4108 38.4430 51.9110
X 67.4108 38.4430 52.6110
X 67.4108 38.4430 53.3110
X 67.4108 38.4430 54.0110
X 67.4108 38.4430 54.7110
X 67.4108 38.4430 55.4110
X 67.4108 38.4430 56.1110
X 67.4108 38.4430 56.8110
X 67.4108 38.4430 57.5110
X 67.4108 38.4430 58.2110
X 67.4108 38.4430 58.9110
X 67.4108 38.4430 59.6110
X 67.4108 38.4430 60.3110
X 67.4108 38.4430 61.0110
X 67.4108 38.4430 61.7110
X 68.1108 38.4430 53.3110
X 68.1108 38.4430 54.0110
X 68.1108 38.4430 54.7110
X 68.1108 38.4430 55.4110
X 68.1108 38.4430 56.1110
X 68.1108 38.4430 56.8110
X 68.1108 38.4430 57.5110
X 68.1108 38.4430 58.2110
X 68.1108 38.4430 58.9110
X 68.1108 38.4430 59.6110
X 68.1108 38.4430 60.3110
X 68.1108 38.4430 61.0110
X 68.8108 38.4430 54.7110
X 68.8108 38.4430 55.4110
X 68.8108 38.4430 56.1110
X 68.8108 38.4430 56.8110
X 68.8108 38.4430 57.5110
X 68.8108 38.4430 58.2110
X 68.8108 38.4430 58.9110
X 48.5108 39.1430 56.8110
X 48.5108 39.1430 57.5110
X 49.2108 39.1430 54.0110
X 49.2108 39.1430 54.7110
X 49.2108 39.1430 55.4110
X 49.2108 39.1430 56.1110
X 49.2108 39.1430 56.8110
X 49.2108 39.1430 57.5110
X 49.2108 39.1430 58.2110
X 49.2108 39.1430 58.9110
X 49.2108 39.1430 59.6110
X 49.2108 39.1430 60.3110
X 49.9108 39.1430 51.2110
X 49.9108 39.1430 51.9110
X 49.9108 39.1430 52.6110
X 49.9108 39.1430 53.3110
X 49.9108 39.1430 54.0110
X 49.9108 39.1430 54.7110
X 49.9108 39.1430 55.4110
X 49.9108 39.1430 56.1110
X 49.9108 39.1430 56.8110
X 49.9108 39.1430 57.5110
X 49.9108 39.1430 58.2110
X 49.9108 39.1430 58.9110
X 49.9108 39.1430 59.6110
X 49.9108 39.1430 60.3110
X 49.9108 39.1430 61.0110
X 49.9108 39.1430 61.7110
X 50.6108 39.1430 49.8110
X 50.6108 39.1430 50.5110
X 50.6108 39.1430 51.2110
X 50.6108 39.1430 51.9110
X 50.6108 39.1430 52.6110
X 50.6108 39.1430 53.3110
X 50.6108 39.1430 54.0110
X 50.6108 39.1430 54.7110
X 50.6108 39.1430 55.4110
X 50.6108 39.1430 56.1110
X 50.6108 39.1430 56.8110
X 50.6108 39.1430 57.5110
X 50.6108 39.1430 58.2110
X 50.6108 39.1430 58.9110
X 50.6108 39.1430 59.6110
X 50.6108 39.1430 60.3110
X 50.6108 39.1430 61.0110
X 50.6108 39.1430 61.7110
X 50.6108 39.1430 62.4110
X 51.3108 39.1430 49.1110
X 51.3108 39.1430 49.8110
X 51.3108 39.1430 50.5110
X 51.3108 39.1430 51.2110
X 51.3108 39.1430 51.9110
X 51.3108 39.1430 52.6110
X 51.3108 39.1430 53.3110
X 51.3108 39.1430 54.0110
X 51.3108 39.1430 54.7110
X 51.3108 39.1430 55.4110
X 51.3108 39.1430 56.1110
X 51.3108 39.1430 56.8110
X 51.3108 39.1430 57.5110
X 51.3108 39.1430 58.2110
X 51.3108 39.1430 58.9110
X 51.3108 39.1430 59.6110
X 51.3108 39.1430 60.3110
X 51.3108 39.1430 61.0110
X 51.3108 39.1430 61.7110
X 51.3108 39.1430 62.4110
X 51.3108 39.1430 63.1110
X 52.0108 39.1430 47.7110
X 52.0108 39.1430 48.4110
X 52.0108 39.1430 49.1110
X 52.0108 39.1430 49.8110
X 52.0108 39.1430 50.5110
X 52.0108 39.1430 51.2110
X 52.0108 39.1430 51.9110
X 52.0108 39.1430 52.6110
X 52.0108 39.1430 53.3110
X 52.0108 39.1430 54.0110
X 52.0108 39.1430 54.7110
X 52.0108 39.1430 55.4110
X 52.0108 39.1430 56.1110
X 52.0108 39.1430 56.8110
X 52.0108 39.1430 57.5110
X 52.0108 39.1430 58.2110
X 52.0108 39.1430 58.9110
X 52.0108 39.1430 59.6110
X 52.0108 39.1430 60.3110
X 52.0108 39.1430 61.0110
X 52.0108 39.1430 61.7110
X 52.0108 39.1430 62.4110
X 52.0108 39.1430 63.1110
X 52.0108 39.1430 63.8110
X 52.7108 39.1430 47.7110
X 52.7108 39.1430 48.4110
X 52.7108 39.1430 49.1110
X 52.7108 39.1430 49.8110
X 52.7108 39.1430 50.5110
X 52.7108 39.1430 51.2110
X 52.7108 39.1430 51.9110
X 52.7108 39.1430 52.6110
X 52.7108 39.1430 53.3110
X 52.7108 39.1430 54.0110
X 52.7108 39.1430 54.7110
X 52.7108 39.1430 55.4110
X 52.7108 39.1430 56.1110
X 52.7108 39.1430 56.8110
X 52.7108 39.1430 57.5110
X 52.7108 39.1430 58.2110
X 52.7108 39.1430 58.9110
X 52.7108 39.1430 59.6110
X 52.7108 39.1430 60.3110
X 52.7108 39.1430 61.0110
X 52.7108 39.1430 61.7110
X 52.7108 39.1430 62.4110
X 52.7108 39.1430 63.1110
X 52.7108 39.1430 63.8110
X 53.4108 39.1430 47.0110
X 53.4108 39.1430 47.7110
X 53.4108 39.1430 48.4110
X 53.4108 39.1430 49.1110
X 53.4108 39.1430 49.8110
X 53.4108 39.1430 50.5110
X 53.4108 39.1430 51.2110
X 53.4108 39.1430 51.9110
X 53.4108 39.1430 52.6110
X 53.4108 39.1430 53.3110
X 53.4108 39.1430 54.0110
X 53.4108 39.1430 54.7110
X 53.4108 39.1430 55.4110
X 53.4108 39.1430 56.1110
X 53.4108 39.1430 56.8110
X 53.4108 39.1430 57.5110
X 53.4108 39.1430 58.2110
X 53.4108 39.1430 58.9110
X 53.4108 39.1430 59.6110
X 53.4108 39.1430 60.3110
X 53.4108 39.1430 61.0110
X 53.4108 39.1430 61.7110
X 53.4108 39.1430 62.4110
X 53.4108 39.1430 63.1110
X 53.4108 39.1430 63.8110
X 53.4108 39.1430 64.5110
X 54.1108 39.1430 46.3110
X 54.1108 39.1430 47.0110
X 54.1108 39.1430 47.7110
X 54.1108 39.1430 48.4110
X 54.1108 39.1430 49.1110
X 54.1108 39.1430 49.8110
X 54.1108 39.1430 50.5110
X 54.1108 39.1430 51.2110
X 54.1108 39.1430 51.9110
X 54.1108 39.1430 52.6110
X 54.1108 39.1430 53.3110
X 54.1108 39.1430 54.0110
X 54.1108 39.1430 54.7110
X 54.1108 39.1430 55.4110
X 54.1108 39.1430 56.1110
X 54.1108 39.1430 56.8110
X 54.1108 39.1430 57.5110
X 54.1108 39.1430 58.2110
X 54.1108 39.1430 58.9110
X 54.1108 39.1430 59.6110
X 54.1108 39.1430 60.3110
X 54.1108 39.1430 61.0110
X 54.1108 39.1430 61.7110
X 54.1108 39.1430 62.4110
X 54.1108 39.1430 63.1110
X 54.1108 39.1430 63.8110
X 54.1108 39.1430 64.5110
X 54.8108 39.1430 46.3110
X 54.8108 39.1430 47.0110
X 54.8108 39.1430 47.7110
X 54.8108 39.1430 48.4110
X 54.8108 39.1430 49.1110
X 54.8108 39.1430 49.8110
X 54.8108 39.1430 50.5110
X 54.8108 39.1430 51.2110
X 54.8108 39.1430 51.9110
X 54.8108 39.1430 52.6110
X 54.8108 39.1430 53.3110
X 54.8108 39.1430 54.0110
X 54.8108 39.1430 54.7110
X 54.8108 39.1430 55.4110
X 54.8108 39.1430 56.1110
X 54.8108 39.1430 56.8110
X 54.8108 39.1430 57.5110
X 54.8108 39.1430 58.2110
X 54.8108 39.1430 58.9110
X 54.8108 39.1430 59.6110
X 54.8108 39.1430 60.3110
X 54.8108 39.1430 61.0110
X 54.8108 39.1430 61.7110
X 54.8108 39.1430 62.4110
X 54.8108 39.1430 63.1110
X 54.8108 39.1430 63.8110
X 54.8108 39.1430 64.5110
X 55.5108 39.1430 46.3110
X 55.5108 39.1430 47.0110
X 55.5108 39.1430 47.7110
X 55.5108 39.1430 48.4110
X 55.5108 39.1430 49.1110
X 55.5108 39.1430 49.8110
X 55.5108 39.1430 50.5110
X 55.5108 39.1430 51.2110
X 55.5108 39.1430 51.9110
X 55.5108 39.1430 52.6110
X 55.5108 39.1430 53.3110
X 55.5108 39.1430 54.0110
X 55.5108 39.1430 54.7110
X 55.5108 39.1430 55.4110
X 55.5108 39.1430 56.1110
X 55.5108 39.1430 57.5110
X 55.5108 39.1430 58.2110
X 55.5108 39.1430 58.9110
X 55.5108 39.1430 59.6110
X 55.5108 39.1430 60.3110
X 55.5108 39.1430 61.0110
X 55.5108 39.1430 61.7110
X 55.5108 39.1430 62.4110
X 55.5108 39.1430 63.1110
X 55.5108 39.1430 63.8110
X 55.5108 39.1430 64.5110
X 55.5108 39.1430 65.2110
X 56.2108 39.1430 46.3110
X 56.2108 39.1430 47.0110
X 56.2108 39.1430 47.7110
X 56.2108 39.1430 48.4110
X 56.2108 39.1430 49.1110
X 56.2108 39.1430 49.8110
X 56.2108 39.1430 50.5110
X 56.2108 39.1430 51.2110
X 56.2108 39.1430 51.9110
X 56.2108 39.1430 52.6110
X 56.2108 39.1430 53.3110
X 56.2108 39.1430 54.0110
X 56.2108 39.1430 54.7110
X 56.2108 39.1430 55.4110
X 56.2108 39.1430 58.9110
X 56.2108 39.1430 59.6110
X 56.2108 39.1430 60.3110
X 56.2108 39.1430 61.0110
X 56.2108 39.1430 61.7110
X 56.2108 39.1430 62.4110
X 56.2108 39.1430 63.1110
X 56.2108 39.1430 63.8110
X 56.2108 39.1430 64.5110
X 56.2108 39.1430 65.2110
X 56.9108 39.1430 45.6110
X 56.9108 39.1430 46.3110
X 56.9108 39.1430 47.0110
X 56.9108 39.1430 47.7110
X 56.9108 39.1430 48.4110
X 56.9108 39.1430 49.1110
X 56.9108 39.1430 49.8110
X 56.9108 39.1430 50.5110
X 56.9108 39.1430 51.2110
X 56.9108 39.1430 51.9110
X 56.9108 39.1430 52.6110
X 56.9108 39.1430 53.3110
X 56.9108 39.1430 54.0110
X 56.9108 39.1430 58.9110
X 56.9108 39.1430 59.6110
X 56.9108 39.1430 60.3110
X 56.9108 39.1430 61.0110
X 56.9108 39.1430 61.7110
X 56.9108 39.1430 62.4110
X 56.9108 39.1430 63.1110
X 56.9108 39.1430 63.8110
X 56.9108 39.1430 64.5110
X 56.9108 39.1430 65.2110
X 57.6108 39.1430 45.6110
X 57.6108 39.1430 46.3110
X 57.6108 39.1430 47.0110
X 57.6108 39.1430 47.7110
X 57.6108 39.1430 48.4110
X 57.6108 39.1430 49.1110
X 57.6108 39.1430 49.8110
X 57.6108 39.1430 50.5110
X 57.6108 39.1430 51.2110
X 57.6108 39.1430 51.9110
X 57.6108 39.1430 52.6110
X 57.6108 39.1430 53.3110
X 57.6108 39.1430 54.0110
X 57.6108 39.1430 59.6110
X 57.6108 39.1430 60.3110
X 57.6108 39.1430 61.0110
X 57.6108 39.1430 61.7110
X 57.6108 39.1430 62.4110
X 57.6108 39.1430 63.1110
X 57.6108 39.1430 63.8110
X 57.6108 39.1430 64.5110
X 57.6108 39.1430 65.2110
X 58.3108 39.1430 46.3110
X 58.3108 39.1430 47.0110
X 58.3108 39.1430 47.7110
X 58.3108 39.1430 48.4110
X 58.3108 39.1430 49.1110
X 58.3108 39.1430 49.8110
X 58.3108 39.1430 50.5110
X 58.3108 39.1430 51.2110
X 58.3108 39.1430 51.9110
X 58.3108 39.1430 52.6110
X 58.3108 39.1430 53.3110
X 58.3108 39.1430 59.6110
X 58.3108 39.1430 60.3110
X 58.3108 39.1430 61.0110
X 58.3108 39.1430 61.7110
X 58.3108 39.1430 62.4110
X 58.3108 39.1430 63.1110
X 58.3108 39.1430 63.8110
X 58.3108 39.1430 64.5110
X 58.3108 39.1430 65.2110
X 59.0108 39.1430 46.3110
X 59.0108 39.1430 47.0110
X 59.0108 39.1430 47.7110
X 59.0108 39.1430 48.4110
X 59.0108 39.1430 49.1110
X 59.0108 39.1430 49.8110
X 59.0108 39.1430 50.5110
X 59.0108 39.1430 51.2110
X 59.0108 39.1430 51.9110
X 59.0108 39.1430 52.6110
X 59.0108 39.1430 53.3110
X 59.0108 39.1430 59.6110
X 59.0108 39.1430 60.3110
X 59.0108 39.1430 61.0110
X 59.0108 39.1430 61.7110
X 59.0108 39.1430 62.4110
X 59.0108 39.1430 63.1110
X 59.0108 39.1430 63.8110
X 59.0108 39.1430 64.5110
X 59.0108 39.1430 65.2110
X 59.7108 39.1430 46.3110
X 59.7108 39.1430 47.0110
X 59.7108 39.1430 47.7110
X 59.7108 39.1430 48.4110
X 59.7108 39.1430 49.1110
X 59.7108 39.1430 49.8110
X 59.7108 39.1430 50.5110
X 59.7108 39.1430 51.2110
X 59.7108 39.1430 51.9110
X 59.7108 39.1430 52.6110
X 59.7108 39.1430 53.3110
X 59.7108 39.1430 54.0110
X 59.7108 39.1430 59.6110
X 59.7108 39.1430 60.3110
X 59.7108 39.1430 61.0110
X 59.7108 39.1430 61.7110
X 59.7108 39.1430 62.4110
X 59.7108 39.1430 63.1110
X 59.7108 39.1430 63.8110
X 59.7108 39.1430 64.5110
X 59.7108 39.1430 65.2110
X 60.4108 39.1430 46.3110
X 60.4108 39.1430 47.0110
X 60.4108 39.1430 47.7110
X 60.4108 39.1430 48.4110
X 60.4108 39.1430 49.1110
X 60.4108 39.1430 49.8110
X 60.4108 39.1430 50.5110
X 60.4108 39.1430 51.2110
X 60.4108 39.1430 51.9110
X 60.4108 39.1430 52.6110
X 60.4108 39.1430 53.3110
X 60.4108 39.1430 54.0110
X 60.4108 39.1430 58.9110
X 60.4108 39.1430 59.6110
X 60.4108 39.1430 60.3110
X 60.4108 39.1430 61.0110
X 60.4108 39.1430 61.7110
X 60.4108 39.1430 62.4110
X 60.4108 39.1430 63.1110
X 60.4108 39.1430 63.8110
X 60.4108 39.1430 64.5110
X 61.1108 39.1430 46.3110
X 61.1108 39.1430 47.0110
X 61.1108 39.1430 47.7110
X 61.1108 39.1430 48.4110
X 61.1108 39.1430 49.1110
X 61.1108 39.1430 49.8110
X 61.1108 39.1430 50.5110
X 61.1108 39.1430 51.2110
X 61.1108 39.1430 51.9110
X 61.1108 39.1430 52.6110
X 61.1108 39.1430 53.3110
X 61.1108 39.1430 54.0110
X 61.1108 39.1430 54.7110
X 61.1108 39.1430 58.2110
X 61.1108 39.1430 58.9110
X 61.1108 39.1430 59.6110
X 61.1108 39.1430 60.3110
X 61.1108 39.1430 61.0110
X 61.1108 39.1430 61.7110
X 61.1108 39.1430 62.4110
X 61.1108 39.1430 63.1110
X 61.1108 39.1430 63.8110
X 61.1108 39.1430 64.5110
X 61.8108 39.1430 46.3110
X 61.8108 39.1430 47.0110
X 61.8108 39.1430 47.7110
X 61.8108 39.1430 48.4110
X 61.8108 39.1430 49.1110
X 61.8108 39.1430 49.8110
X 61.8108 39.1430 50.5110
X 61.8108 39.1430 51.2110
X 61.8108 39.1430 51.9110
X 61.8108 39.1430 52.6110
X 61.8108 39.1430 53.3110
X 61.8108 39.1430 54.0110
X 61.8108 39.1430 54.7110
X 61.8108 39.1430 55.4110
X 61.8108 39.1430 56.1110
X 61.8108 39.1430 56.8110
X 61.8108 39.1430 57.5110
X 61.8108 39.1430 58.2110
X 61.8108 39.1430 58.9110
X 61.8108 39.1430 59.6110
X 61.8108 39.1430 60.3110
X 61.8108 39.1430 61.0110
X 61.8108 39.1430 61.7110
X 61.8108 39.1430 62.4110
X 61.8108 39.1430 63.1110
X 61.8108 39.1430 63.8110
X 61.8108 39.1430 64.5110
X 62.5108 39.1430 47.0110
X 62.5108 39.1430 47.7110
X 62.5108 39.1430 48.4110
X 62.5108 39.1430 49.1110
X 62.5108 39.1430 49.8110
X 62.5108 39.1430 50.5110
X 62.5108 39.1430 51.2110
X 62.5108 39.1430 51.9110
X 62.5108 39.1430 52.6110
X 62.5108 39.1430 53.3110
X 62.5108 39.1430 54.0110
X 62.5108 39.1430 54.7110
X 62.5108 39.1430 55.4110
X 62.5108 39.1430 56.1110
X 62.5108 39.1430 56.8110
X 62.5108 39.1430 57.5110
X 62.5108 39.1430 58.2110
X 62.5108 39.1430 58.9110
X 62.5108 39.1430 59.6110
X 62.5108 39.1430 60.3110
X 62.5108 39.1430 61.0110
X 62.5108 39.1430 61.7110
X 62.5108 39.1430 62.4110
X 62.5108 39.1430 63.1110
X 62.5108 39.1430 63.8110
X 62.5108 39.1430 64.5110
X 63.2108 39.1430 47.0110
X 63.2108 39.1430 47.7110
X 63.2108 39.1430 48.4110
X 63.2108 39.1430 49.1110
X 63.2108 39.1430 49.8110
X 63.2108 39.1430 50.5110
X 63.2108 39.1430 51.2110
X 63.2108 39.1430 51.9110
X 63.2108 39.1430 52.6110
X 63.2108 39.1430 53.3110
X 63.2108 39.1430 54.0110
X 63.2108 39.1430 54.7110
X 63.2108 39.1430 55.4110
X 63.2108 39.1430 56.1110
X 63.2108 39.1430 56.8110
X 63.2108 39.1430 57.5110
X 63.2108 39.1430 58.2110
X 63.2108 39.1430 58.9110
X 63.2108 39.1430 59.6110
X 63.2108 39.1430 60.3110
X 63.2108 39.1430 61.0110
X 63.2108 39.1430 61.7110
X 63.2108 39.1430 62.4110
X 63.2108 39.1430 63.1110
X 63.2108 39.1430 63.8110
X 63.2108 39.1430 64.5110
X 63.9108 39.1430 47.7110
X 63.9108 39.1430 48.4110
X 63.9108 39.1430 49.1110
X 63.9108 39.1430 49.8110
X 63.9108 39.1430 50.5110
X 63.9108 39.1430 51.2110
X 63.9108 39.1430 51.9110
X 63.9108 39.1430 52.6110
X 63.9108 39.1430 53.3110
X 63.9108 39.1430 54.0110
X 63.9108 39.1430 54.7110
X 63.9108 39.1430 55.4110
X 63.9108 39.1430 56.1110
X 63.9108 39.1430 56.8110
X 63.9108 39.1430 57.5110
X 63.9108 39.1430 58.2110
X 63.9108 39.1430 58.9110
X 63.9108 39.1430 59.6110
X 63.9108 39.1430 60.3110
X 63.9108 39.1430 61.0110
X 63.9108 39.1430 61.7110
X 63.9108 39.1430 62.4110
X 63.9108 39.1430 63.1110
X 63.9108 39.1430 63.8110
X 63.9108 39.1430 64.5110
X 64.6108 39.1430 47.7110
X 64.6108 39.1430 48.4110
X 64.6108 39.1430 49.1110
X 64.6108 39.1430 49.8110
X 64.6108 39.1430 50.5110
X 64.6108 39.1430 51.2110
X 64.6108 39.1430 51.9110
X 64.6108 39.1430 52.6110
X 64.6108 39.1430 53.3110
X 64.6108 39.1430 54.0110
X 64.6108 39.1430 54.7110
X 64.6108 39.1430 55.4110
X 64.6108 39.1430 56.1110
X 64.6108 39.1430 56.8110
X 64.6108 39.1430 57.5110
X 64.6108 39.1430 58.2110
X 64.6108 39.1430 58.9110
X 64.6108 39.1430 59.6110
X 64.6108 39.1430 60.3110
X 64.6108 39.1430 61.0110
X 64.6108 39.1430 61.7110
X 64.6108 39.1430 62.4110
X 64.6108 39.1430 63.1110
X 64.6108 39.1430 63.8110
X 65.3108 39.1430 48.4110
X 65.3108 39.1430 49.1110
X 65.3108 39.1430 49.8110
X 65.3108 39.1430 50.5110
X 65.3108 39.1430 51.2110
X 65.3108 39.1430 51.9110
X 65.3108 39.1430 52.6110
X 65.3108 39.1430 53.3110
X 65.3108 39.1430 54.0110
X 65.3108 39.1430 54.7110
X 65.3108 39.1430 55.4110
X 65.3108 39.1430 56.1110
X 65.3108 39.1430 56.8110
X 65.3108 39.1430 57.5110
X 65.3108 39.1430 58.2110
X 65.3108 39.1430 58.9110
X 65.3108 39.1430 59.6110
X 65.3108 39.1430 60.3110
X 65.3108 39.1430 61.0110
X 65.3108 39.1430 61.7110
X 65.3108 39.1430 62.4110
X 65.3108 39.1430 63.1110
X 66.0108 39.1430 49.8110
X 66.0108 39.1430 50.5110
X 66.0108 39.1430 51.2110
X 66.0108 39.1430 51.9110
X 66.0108 39.1430 52.6110
X 66.0108 39.1430 53.3110
X 66.0108 39.1430 54.0110
X 66.0108 39.1430 54.7110
X 66.0108 39.1430 55.4110
X 66.0108 39.1430 56.1110
X 66.0108 39.1430 56.8110
X 66.0108 39.1430 57.5110
X 66.0108 39.1430 58.2110
X 66.0108 39.1430 58.9110
X 66.0108 39.1430 59.6110
X 66.0108 39.1430 60.3110
X 66.0108 39.1430 61.0110
X 66.0108 39.1430 61.7110
X 66.0108 39.1430 62.4110
X 66.0108 39.1430 63.1110
X 66.7108 39.1430 51.2110
X 66.7108 39.1430 51.9110
X 66.7108 39.1430 52.6110
X 66.7108 39.1430 53.3110
X 66.7108 39.1430 54.0110
X 66.7108 39.1430 54.7110
X 66.7108 39.1430 55.4110
X 66.7108 39.1430 56.1110
X 66.7108 39.1430 56.8110
X 66.7108 39.1430 57.5110
X 66.7108 39.1430 58.2110
X 66.7108 39.1430 58.9110
X 66.7108 39.1430 59.6110
X 66.7108 39.1430 60.3110
X 66.7108 39.1430 61.0110
X 66.7108 39.1430 61.7110
X 66.7108 39.1430 62.4110
X 67.4108 39.1430 52.6110
X 67.4108 39.1430 53.3110
X 67.4108 39.1430 54.0110
X 67.4108 39.1430 54.7110
X 67.4108 39.1430 55.4110
X 67.4108 39.1430 56.1110
X 67.4108 39.1430 56.8110
X 67.4108 39.1430 57.5110
X 67.4108 39.1430 58.2110
X 67.4108 39.1430 58.9110
X 67.4108 39.1430 59.6110
X 67.4108 39.1430 60.3110
X 67.4108 39.1430 61.0110
X 68.1108 39.1430 54.0110
X 68.1108 39.1430 54.7110
X 68.1108 39.1430 55.4110
X 68.1108 39.1430 56.1110
X 68.1108 39.1430 56.8110
X 68.1108 39.1430 57.5110
X 68.1108 39.1430 58.2110
X 68.1108 39.1430 58.9110
X 68.1108 39.1430 59.6110
X 68.1108 39.1430 60.3110
X 68.8108 39.1430 56.8110
X 68.8108 39.1430 57.5110
X 49.2108 39.8430 54.7110
X 49.2108 39.8430 55.4110
X 49.2108 39.8430 56.1110
X 49.2108 39.8430 56.8110
X 49.2108 39.8430 57.5110
X 49.2108 39.8430 58.2110
X 49.2108 39.8430 58.9110
X 49.2108 39.8430 59.6110
X 49.9108 39.8430 53.3110
X 49.9108 39.8430 54.0110
X 49.9108 39.8430 54.7110
X 49.9108 39.8430 55.4110
X 49.9108 39.8430 56.1110
X 49.9108 39.8430 56.8110
X 49.9108 39.8430 57.5110
X 49.9108 39.8430 58.2110
X 49.9108 39.8430 58.9110
X 49.9108 39.8430 59.6110
X 49.9108 39.8430 60.3110
X 49.9108 39.8430 61.0110
X 50.6108 39.8430 50.5110
X 50.6108 39.8430 51.2110
X 50.6108 39.8430 51.9110
X 50.6108 39.8430 52.6110
X 50.6108 39.8430 53.3110
X 50.6108 39.8430 54.0110
X 50.6108 39.8430 54.7110
X 50.6108 39.8430 55.4110
X 50.6108 39.8430 56.1110
X 50.6108 39.8430 56.8110
X 50.6108 39.8430 57.5110
X 50.6108 39.8430 58.2110
X 50.6108 39.8430 58.9110
X 50.6108 39.8430 59.6110
X 50.6108 39.8430 60.3110
X 50.6108 39.8430 61.0110
X 50.6108 39.8430 61.7110
X 51.3108 39.8430 49.8110
X 51.3108 39.8430 50.5110
X 51.3108 39.8430 51.2110
X 51.3108 39.8430 51.9110
X 51.3108 39.8430 52.6110
X 51.3108 39.8430 53.3110
X 51.3108 39.8430 54.0110
X 51.3108 39.8430 54.7110
X 51.3108 39.8430 55.4110
X 51.3108 39.8430 56.1110
X 51.3108 39.8430 56.8110
X 51.3108 39.8430 57.5110
X 51.3108 39.8430 58.2110
X 51.3108 39.8430 58.9110
X 51.3108 39.8430 59.6110
X 51.3108 39.8430 60.3110
X 51.3108 39.8430 61.0110
X 51.3108 39.8430 61.7110
X 51.3108 39.8430 62.4110
X 52.0108 39.8430 48.4110
X 52.0108 39.8430 49.1110
X 52.0108 39.8430 49.8110
X 52.0108 39.8430 50.5110
X 52.0108 39.8430 51.2110
X 52.0108 39.8430 51.9110
X 52.0108 39.8430 52.6110
X 52.0108 39.8430 53.3110
X 52.0108 39.8430 54.0110
X 52.0108 39.8430 54.7110
X 52.0108 39.8430 55.4110
X 52.0108 39.8430 56.1110
X 52.0108 39.8430 56.8110
X 52.0108 39.8430 57.5110
X 52.0108 39.8430 58.2110
X 52.0108 39.8430 58.9110
X 52.0108 39.8430 59.6110
X 52.0108 39.8430 60.3110
X 52.0108 39.8430 61.0110
X 52.0108 39.8430 61.7110
X 52.0108 39.8430 62.4110
X 52.0108 39.8430 63.1110
X 52.7108 39.8430 47.7110
X 52.7108 39.8430 48.4110
X 52.7108 39.8430 49.1110
X 52.7108 39.8430 49.8110
X 52.7108 39.8430 50.5110
X 52.7108 39.8430 51.2110
X 52.7108 39.8430 51.9110
X 52.7108 39.8430 52.6110
X 52.7108 39.8430 53.3110
X 52.7108 39.8430 54.0110
X 52.7108 39.8430 54.7110
X 52.7108 39.8430 55.4110
X 52.7108 39.8430 56.1110
X 52.7108 39.8430 56.8110
X 52.7108 39.8430 57.5110
X 52.7108 39.8430 58.2110
X 52.7108 39.8430 58.9110
X 52.7108 39.8430 59.6110
X 52.7108 39.8430 60.3110
X 52.7108 39.8430 61.0110
X 52.7108 39.8430 61.7110
X 52.7108 39.8430 62.4110
X 52.7108 39.8430 63.1110
X 52.7108 39.8430 63.8110
X 53.4108 39.8430 47.7110
X 53.4108 39.8430 48.4110
X 53.4108 39.8430 49.1110
X 53.4108 39.8430 49.8110
X 53.4108 39.8430 50.5110
X 53.4108 39.8430 51.2110
X 53.4108 39.8430 51.9110
X 53.4108 39.8430 52.6110
X 53.4108 39.8430 53.3110
X 53.4108 39.8430 54.0110
X 53.4108 39.8430 54.7110
X 53.4108 39.8430 55.4110
X 53.4108 39.8430 56.1110
X 53.4108 39.8430 56.8110
X 53.4108 39.8430 57.5110
X 53.4108 39.8430 58.2110
X 53.4108 39.8430 58.9110
X 53.4108 39.8430 59.6110
X 53.4108 39.8430 60.3110
X 53.4108 39.8430 61.0110
X 53.4108 39.8430 61.7110
X 53.4108 39.8430 62.4110
X 53.4108 39.8430 63.1110
X 53.4108 39.8430 63.8110
X 54.1108 39.8430 47.0110
X 54.1108 39.8430 47.7110
X 54.1108 39.8430 48.4110
X 54.1108 39.8430 49.1110
X 54.1108 39.8430 49.8110
X 54.1108 39.8430 50.5110
X 54.1108 39.8430 51.2110
X 54.1108 39.8430 51.9110
X 54.1108 39.8430 52.6110
X 54.1108 39.8430 53.3110
X 54.1108 39.8430 54.0110
X 54.1108 39.8430 54.7110
X 54.1108 39.8430 55.4110
X 54.1108 39.8430 56.1110
X 54.1108 39.8430 56.8110
X 54.1108 39.8430 57.5110
X 54.1108 39.8430 58.2110
X 54.1108 39.8430 58.9110
X 54.1108 39.8430 59.6110
X 54.1108 39.8430 60.3110
X 54.1108 39.8430 61.0110
X 54.1108 39.8430 61.7110
X 54.1108 39.8430 62.4110
X 54.1108 39.8430 63.1110
X 54.1108 39.8430 63.8110
X 54.1108 39.8430 64.5110
X 54.8108 39.8430 47.0110
X 54.8108 39.8430 47.7110
X 54.8108 39.8430 48.4110
X 54.8108 39.8430 49.1110
X 54.8108 39.8430 49.8110
X 54.8108 39.8430 50.5110
X 54.8108 39.8430 51.2110
X 54.8108 39.8430 51.9110
X 54.8108 39.8430 52.6110
X 54.8108 39.8430 53.3110
X 54.8108 39.8430 54.0110
X 54.8108 39.8430 54.7110
X 54.8108 39.8430 55.4110
X 54.8108 39.8430 56.1110
X 54.8108 39.8430 56.8110
X 54.8108 39.8430 57.5110
X 54.8108 39.8430 58.2110
X 54.8108 39.8430 58.9110
X 54.8108 39.8430 59.6110
X 54.8108 39.8430 60.3110
X 54.8108 39.8430 61.0110
X 54.8108 39.8430 61.7110
X 54.8108 39.8430 62.4110
X 54.8108 39.8430 63.1110
X 54.8108 39.8430 63.8110
X 54.8108 39.8430 64.5110
X 55.5108 39.8430 46.3110
X 55.5108 39.8430 47.0110
X 55.5108 39.8430 47.7110
X 55.5108 39.8430 48.4110
X 55.5108 39.8430 49.1110
X 55.5108 39.8430 49.8110
X 55.5108 39.8430 50.5110
X 55.5108 39.8430 51.2110
X 55.5108 39.8430 51.9110
X 55.5108 39.8430 52.6110
X 55.5108 39.8430 53.3110
X 55.5108 39.8430 54.0110
X 55.5108 39.8430 54.7110
X 55.5108 39.8430 55.4110
X 55.5108 39.8430 56.1110
X 55.5108 39.8430 56.8110
X 55.5108 39.8430 57.5110
X 55.5108 39.8430 58.2110
X 55.5108 39.8430 58.9110
X 55.5108 39.8430 59.6110
X 55.5108 39.8430 60.3110
X 55.5108 39.8430 61.0110
X 55.5108 39.8430 61.7110
X 55.5108 39.8430 62.4110
X 55.5108 39.8430 63.1110
X 55.5108 39.8430 63.8110
X 55.5108 39.8430 64.5110
X 56.2108 39.8430 46.3110
X 56.2108 39.8430 47.0110
X 56.2108 39.8430 47.7110
X 56.2108 39.8430 48.4110
X 56.2108 39.8430 49.1110
X 56.2108 39.8430 49.8110
X 56.2108 39.8430 50.5110
X 56.2108 39.8430 51.2110
X 56.2108 39.8430 51.9110
X 56.2108 39.8430 52.6110
X 56.2108 39.8430 53.3110
X 56.2108 39.8430 54.0110
X 56.2108 39.8430 54.7110
X 56.2108 39.8430 55.4110
X 56.2108 39.8430 56.1110
X 56.2108 39.8430 56.8110
X 56.2108 39.8430 57.5110
X 56.2108 39.8430 58.2110
X 56.2108 39.8430 58.9110
X 56.2108 39.8430 59.6110
X 56.2108 39.8430 60.3110
X 56.2108 39.8430 61.0110
X 56.2108 39.8430 61.7110
X 56.2108 39.8430 62.4110
X 56.2108 39.8430 63.1110
X 56.2108 39.8430 63.8110
X 56.2108 39.8430 64.5110
X 56.9108 39.8430 46.3110
X 56.9108 39.8430 47.0110
X 56.9108 39.8430 47.7110
X 56.9108 39.8430 48.4110
X 56.9108 39.8430 49.1110
X 56.9108 39.8430 49.8110
X 56.9108 39.8430 50.5110
X 56.9108 39.8430 51.2110
X 56.9108 39.8430 51.9110
X 56.9108 39.8430 52.6110
X 56.9108 39.8430 53.3110
X 56.9108 39.8430 54.0110
X 56.9108 39.8430 54.7110
X 56.9108 39.8430 55.4110
X 56.9108 39.8430 56.1110
X 56.9108 39.8430 56.8110
X 56.9108 39.8430 57.5110
X 56.9108 39.8430 58.2110
X 56.9108 39.8430 58.9110
X 56.9108 39.8430 59.6110
X 56.9108 39.8430 60.3110
X 56.9108 39.8430 61.0110
X 56.9108 39.8430 61.7110
X 56.9108 39.8430 62.4110
X 56.9108 39.8430 63.1110
X 56.9108 39.8430 63.8110
X 56.9108 39.8430 64.5110
X 57.6108 39.8430 46.3110
X 57.6108 39.8430 47.0110
X 57.6108 39.8430 47.7110
X 57.6108 39.8430 48.4110
X 57.6108 39.8430 49.1110
X 57.6108 39.8430 49.8110
X 57.6108 39.8430 50.5110
X 57.6108 39.8430 51.2110
X 57.6108 39.8430 51.9110
X 57.6108 39.8430 52.6110
X 57.6108 39.8430 53.3110
X 57.6108 39.8430 54.0110
X 57.6108 39.8430 54.7110
X 57.6108 39.8430 58.2110
X 57.6108 39.8430 58.9110
X 57.6108 39.8430 59.6110
X 57.6108 39.8430 60.3110
X 57.6108 39.8430 61.0110
X 57.6108 39.8430 61.7110
X 57.6108 39.8430 62.4110
X 57.6108 39.8430 63.1110
X 57.6108 39.8430 63.8110
X 57.6108 39.8430 64.5110
X 58.3108 39.8430 46.3110
X 58.3108 39.8430 47.0110
X 58.3108 39.8430 47.7110
X 58.3108 39.8430 48.4110
X 58.3108 39.8430 49.1110
X 58.3108 39.8430 49.8110
X 58.3108 39.8430 50.5110
X 58.3108 39.8430 51.2110
X 58.3108 39.8430 51.9110
X 58.3108 39.8430 52.6110
X 58.3108 39.8430 53.3110
X 58.3108 39.8430 54.0110
X 58.3108 39.8430 54.7110
X 58.3108 39.8430 58.9110
X 58.3108 39.8430 59.6110
X 58.3108 39.8430 60.3110
X 58.3108 39.8430 61.0110
X 58.3108 39.8430 61.7110
X 58.3108 39.8430 62.4110
X 58.3108 39.8430 63.1110
X 58.3108 39.8430 63.8110
X 58.3108 39.8430 64.5110
X 59.0108 39.8430 46.3110
X 59.0108 39.8430 47.0110
X 59.0108 39.8430 47.7110
X 59.0108 39.8430 48.4110
X 59.0108 39.8430 49.1110
X 59.0108 39.8430 49.8110
X 59.0108 39.8430 50.5110
X 59.0108 39.8430 51.2110
X 59.0108 39.8430 51.9110
X 59.0108 39.8430 52.6110
X 59.0108 39.8430 53.3110
X 59.0108 39.8430 54.0110
X 59.0108 39.8430 58.9110
X 59.0108 39.8430 59.6110
X 59.0108 39.8430 60.3110
X 59.0108 39.8430 61.0110
X 59.0108 39.8430 61.7110
X 59.0108 39.8430 62.4110
X 59.0108 39.8430 63.1110
X 59.0108 39.8430 63.8110
X 59.0108 39.8430 64.5110
X 59.7108 39.8430 47.0110
X 59.7108 39.8430 47.7110
X 59.7108 39.8430 48.4110
X 59.7108 39.8430 49.1110
X 59.7108 39.8430 49.8110
X 59.7108 39.8430 50.5110
X 59.7108 39.8430 51.2110
X 59.7108 39.8430 51.9110
X 59.7108 39.8430 52.6110
X 59.7108 39.8430 53.3110
X 59.7108 39.8430 54.0110
X 59.7108 39.8430 54.7110
X 59.7108 39.8430 58.9110
X 59.7108 39.8430 59.6110
X 59.7108 39.8430 60.3110
X 59.7108 39.8430 61.0110
X 59.7108 39.8430 61.7110
X 59.7108 39.8430 62.4110
X 59.7108 39.8430 63.1110
X 59.7108 39.8430 63.8110
X 59.7108 39.8430 64.5110
X 60.4108 39.8430 47.0110
X 60.4108 39.8430 47.7110
X 60.4108 39.8430 48.4110
X 60.4108 39.8430 49.1110
X 60.4108 39.8430 49.8110
X 60.4108 39.8430 50.5110
X 60.4108 39.8430 51.2110
X 60.4108 39.8430 51.9110
X 60.4108 39.8430 52.6110
X 60.4108 39.8430 53.3110
X 60.4108 39.8430 54.0110
X 60.4108 39.8430 54.7110
X 60.4108 39.8430 55.4110
X 60.4108 39.8430 58.2110
X 60.4108 39.8430 58.9110
X 60.4108 39.8430 59.6110
X 60.4108 39.8430 60.3110
X 60.4108 39.8430 61.0110
X 60.4108 39.8430 61.7110
X 60.4108 39.8430 62.4110
X 60.4108 39.8430 63.1110
X 60.4108 39.8430 63.8110
X 60.4108 39.8430 64.5110
X 61.1108 39.8430 47.0110
X 61.1108 39.8430 47.7110
X 61.1108 39.8430 48.4110
X 61.1108 39.8430 49.1110
X 61.1108 39.8430 49.8110
X 61.1108 39.8430 50.5110
X 61.1108 39.8430 51.2110
X 61.1108 39.8430 51.9110
X 61.1108 39.8430 52.6110
X 61.1108 39.8430 53.3110
X 61.1108 39.8430 54.0110
X 61.1108 39.8430 54.7110
X 61.1108 39.8430 55.4110
X 61.1108 39.8430 56.1110
X 61.1108 39.8430 56.8110
X 61.1108 39.8430 57.5110
X 61.1108 39.8430 58.2110
X 61.1108 39.8430 58.9110
X 61.1108 39.8430 59.6110
X 61.1108 39.8430 60.3110
X 61.1108 39.8430 61.0110
X 61.1108 39.8430 61.7110
X 61.1108 39.8430 62.4110
X 61.1108 39.8430 63.1110
X 61.1108 39.8430 63.8110
X 61.1108 39.8430 64.5110
X 61.8108 39.8430 47.0110
X 61.8108 39.8430 47.7110
X 61.8108 39.8430 48.4110
X 61.8108 39.8430 49.1110
X 61.8108 39.8430 49.8110
X 61.8108 39.8430 50.5110
X 61.8108 39.8430 51.2110
X 61.8108 39.8430 51.9110
X 61.8108 39.8430 52.6110
X 61.8108 39.8430 53.3110
X 61.8108 39.8430 54.0110
X 61.8108 39.8430 54.7110
X 61.8108 39.8430 55.4110
X 61.8108 39.8430 56.1110
X 61.8108 39.8430 56.8110
X 61.8108 39.8430 57.5110
X 61.8108 39.8430 58.2110
X 61.8108 39.8430 58.9110
X 61.8108 39.8430 59.6110
X 61.8108 39.8430 60.3110
X 61.8108 39.8430 61.0110
X 61.8108 39.8430 61.7110
X 61.8108 39.8430 62.4110
X 61.8108 39.8430 63.1110
X 61.8108 39.8430 63.8110
X 61.8108 39.8430 64.5110
X 62.5108 39.8430 47.0110
X 62.5108 39.8430 47.7110
X 62.5108 39.8430 48.4110
X 62.5108 39.8430 49.1110
X 62.5108 39.8430 49.8110
X 62.5108 39.8430 50.5110
X 62.5108 39.8430 51.2110
X 62.5108 39.8430 51.9110
X 62.5108 39.8430 52.6110
X 62.5108 39.8430 53.3110
X 62.5108 39.8430 54.0110
X 62.5108 39.8430 54.7110
X 62.5108 39.8430 55.4110
X 62.5108 39.8430 56.1110
X 62.5108 39.8430 56.8110
X 62.5108 39.8430 57.5110
X 62.5108 39.8430 58.2110
X 62.5108 39.8430 58.9110
X 62.5108 39.8430 59.6110
X 62.5108 39.8430 60.3110
X 62.5108 39.8430 61.0110
X 62.5108 39.8430 61.7110
X 62.5108 39.8430 62.4110
X 62.5108 39.8430 63.1110
X 62.5108 39.8430 63.8110
X 62.5108 39.8430 64.5110
X 63.2108 39.8430 47.7110
X 63.2108 39.8430 48.4110
X 63.2108 39.8430 49.1110
X 63.2108 39.8430 49.8110
X 63.2108 39.8430 50.5110
X 63.2108 39.8430 51.2110
X 63.2108 39.8430 51.9110
X 63.2108 39.8430 52.6110
X 63.2108 39.8430 53.3110
X 63.2108 39.8430 54.0110
X 63.2108 39.8430 54.7110
X 63.2108 39.8430 55.4110
X 63.2108 39.8430 56.1110
X 63.2108 39.8430 56.8110
X 63.2108 39.8430 57.5110
X 63.2108 39.8430 58.2110
X 63.2108 39.8430 58.9110
X 63.2108 39.8430 59.6110
X 63.2108 39.8430 60.3110
X 63.2108 39.8430 61.0110
X 63.2108 39.8430 61.7110
X 63.2108 39.8430 62.4110
X 63.2108 39.8430 63.1110
X 63.2108 39.8430 63.8110
X 63.9108 39.8430 48.4110
X 63.9108 39.8430 49.1110
X 63.9108 39.8430 49.8110
X 63.9108 39.8430 50.5110
X 63.9108 39.8430 51.2110
X 63.9108 39.8430 51.9110
X 63.9108 39.8430 52.6110
X 63.9108 39.8430 53.3110
X 63.9108 39.8430 54.0110
X 63.9108 39.8430 54.7110
X 63.9108 39.8430 55.4110
X 63.9108 39.8430 56.1110
X 63.9108 39.8430 56.8110
X 63.9108 39.8430 57.5110
X 63.9108 39.8430 58.2110
X 63.9108 39.8430 58.9110
X 63.9108 39.8430 59.6110
X 63.9108 39.8430 60.3110
X 63.9108 39.8430 61.0110
X 63.9108 39.8430 61.7110
X 63.9108 39.8430 62.4110
X 63.9108 39.8430 63.1110
X 63.9108 39.8430 63.8110
X 64.6108 39.8430 49.1110
X 64.6108 39.8430 49.8110
X 64.6108 39.8430 50.5110
X 64.6108 39.8430 51.2110
X 64.6108 39.8430 51.9110
X 64.6108 39.8430 52.6110
X 64.6108 39.8430 53.3110
X 64.6108 39.8430 54.0110
X 64.6108 39.8430 54.7110
X 64.6108 39.8430 55.4110
X 64.6108 39.8430 56.1110
X 64.6108 39.8430 56.8110
X 64.6108 39.8430 57.5110
X 64.6108 39.8430 58.2110
X 64.6108 39.8430 58.9110
X 64.6108 39.8430 59.6110
X 64.6108 39.8430 60.3110
X 64.6108 39.8430 61.0110
X 64.6108 39.8430 61.7110
X 64.6108 39.8430 62.4110
X 64.6108 39.8430 63.1110
X 65.3108 39.8430 49.8110
X 65.3108 39.8430 50.5110
X 65.3108 39.8430 51.2110
X 65.3108 39.8430 51.9110
X 65.3108 39.8430 52.6110
X 65.3108 39.8430 53.3110
X 65.3108 39.8430 54.0110
X 65.3108 39.8430 54.7110
X 65.3108 39.8430 55.4110
X 65.3108 39.8430 56.1110
X 65.3108 39.8430 56.8110
X 65.3108 39.8430 57.5110
X 65.3108 39.8430 58.2110
X 65.3108 39.8430 58.9110
X 65.3108 39.8430 59.6110
X 65.3108 39.8430 60.3110
X 65.3108 39.8430 61.0110
X 65.3108 39.8430 61.7110
X 65.3108 39.8430 62.4110
X 65.3108 39.8430 63.1110
X 66.0108 39.8430 51.2110
X 66.0108 39.8430 51.9110
X 66.0108 39.8430 52.6110
X 66.0108 39.8430 53.3110
X 66.0108 39.8430 54.0110
X 66.0108 39.8430 54.7110
X 66.0108 39.8430 55.4110
X 66.0108 39.8430 56.1110
X 66.0108 39.8430 56.8110
X 66.0108 39.8430 57.5110
X 66.0108 39.8430 58.2110
X 66.0108 39.8430 58.9110
X 66.0108 39.8430 59.6110
X 66.0108 39.8430 60.3110
X 66.0108 39.8430 61.0110
X 66.0108 39.8430 61.7110
X 66.0108 39.8430 62.4110
X 66.7108 39.8430 52.6110
X 66.7108 39.8430 53.3110
X 66.7108 39.8430 54.0110
X 66.7108 39.8430 54.7110
X 66.7108 39.8430 55.4110
X 66.7108 39.8430 56.1110
X 66.7108 39.8430 56.8110
X 66.7108 39.8430 57.5110
X 66.7108 39.8430 58.2110
X 66.7108 39.8430 58.9110
X 66.7108 39.8430 59.6110
X 66.7108 39.8430 60.3110
X 66.7108 39.8430 61.0110
X 66.7108 39.8430 61.7110
X 67.4108 39.8430 53.3110
X 67.4108 39.8430 54.0110
X 67.4108 39.8430 54.7110
X 67.4108 39.8430 55.4110
X 67.4108 39.8430 56.1110
X 67.4108 39.8430 56.8110
X 67.4108 39.8430 57.5110
X 67.4108 39.8430 58.2110
X 67.4108 39.8430 58.9110
X 67.4108 39.8430 59.6110
X 67.4108 39.8430 60.3110
X 68.1108 39.8430 54.7110
X 68.1108 39.8430 55.4110
X 68.1108 39.8430 56.1110
X 68.1108 39.8430 56.8110
X 68.1108 39.8430 57.5110
X 68.1108 39.8430 58.2110
X 68.1108 39.8430 58.9110
X 49.2108 40.5430 56.8110
X 49.2108 40.5430 57.5110
X 49.9108 40.5430 54.0110
X 49.9108 40.5430 54.7110
X 49.9108 40.5430 55.4110
X 49.9108 40.5430 56.1110
X 49.9108 40.5430 56.8110
X 49.9108 40.5430 57.5110
X 49.9108 40.5430 58.2110
X 49.9108 40.5430 58.9110
X 49.9108 40.5430 59.6110
X 49.9108 40.5430 60.3110
X 50.6108 40.5430 52.6110
X 50.6108 40.5430 53.3110
X 50.6108 40.5430 54.0110
X 50.6108 40.5430 54.7110
X 50.6108 40.5430 55.4110
X 50.6108 40.5430 56.1110
X 50.6108 40.5430 56.8110
X 50.6108 40.5430 57.5110
X 50.6108 40.5430 58.2110
X 50.6108 40.5430 58.9110
X 50.6108 40.5430 59.6110
X 50.6108 40.5430 60.3110
X 50.6108 40.5430 61.0110
X 51.3108 40.5430 50.5110
X 51.3108 40.5430 51.2110
X 51.3108 40.5430 51.9110
X 51.3108 40.5430 52.6110
X 51.3108 40.5430 53.3110
X 51.3108 40.5430 54.0110
X 51.3108 40.5430 54.7110
X 51.3108 40.5430 55.4110
X 51.3108 40.5430 56.1110
X 51.3108 40.5430 56.8110
X 51.3108 40.5430 57.5110
X 51.3108 40.5430 58.2110
X 51.3108 40.5430 58.9110
X 51.3108 40.5430 59.6110
X 51.3108 40.5430 60.3110
X 51.3108 40.5430 61.0110
X 51.3108 40.5430 61.7110
X 52.0108 40.5430 49.8110
X 52.0108 40.5430 50.5110
X 52.0108 40.5430 51.2110
X 52.0108 40.5430 51.9110
X 52.0108 40.5430 52.6110
X 52.0108 40.5430 53.3110
X 52.0108 40.5430 54.0110
X 52.0108 40.5430 54.7110
X 52.0108 40.5430 55.4110
X 52.0108 40.5430 56.1110
X 52.0108 40.5430 56.8110
X 52.0108 40.5430 57.5110
X 52.0108 40.5430 58.2110
X 52.0108 40.5430 58.9110
X 52.0108 40.5430 59.6110
X 52.0108 40.5430 60.3110
X 52.0108 40.5430 61.0110
X 52.0108 40.5430 61.7110
X 52.0108 40.5430 62.4110
X 52.7108 40.5430 49.1110
X 52.7108 40.5430 49.8110
X 52.7108 40.5430 50.5110
X 52.7108 40.5430 51.2110
X 52.7108 40.5430 51.9110
X 52.7108 40.5430 52.6110
X 52.7108 40.5430 53.3110
X 52.7108 40.5430 54.0110
X 52.7108 40.5430 54.7110
X 52.7108 40.5430 55.4110
X 52.7108 40.5430 56.1110
X 52.7108 40.5430 56.8110
X 52.7108 40.5430 57.5110
X 52.7108 40.5430 58.2110
X 52.7108 40.5430 58.9110
X 52.7108 40.5430 59.6110
X 52.7108 40.5430 60.3110
X 52.7108 40.5430 61.0110
X 52.7108 40.5430 61.7110
X 52.7108 40.5430 62.4110
X 52.7108 40.5430 63.1110
X 53.4108 40.5430 48.4110
X 53.4108 40.5430 49.1110
X 53.4108 40.5430 49.8110
X 53.4108 40.5430 50.5110
X 53.4108 40.5430 51.2110
X 53.4108 40.5430 51.9110
X 53.4108 40.5430 52.6110
X 53.4108 40.5430 53.3110
X 53.4108 40.5430 54.0110
X 53.4108 40.5430 54.7110
X 53.4108 40.5430 55.4110
X 53.4108 40.5430 56.1110
X 53.4108 40.5430 56.8110
X 53.4108 40.5430 57.5110
X 53.4108 40.5430 58.2110
X 53.4108 40.5430 58.9110
X 53.4108 40.5430 59.6110
X 53.4108 40.5430 60.3110
X 53.4108 40.5430 61.0110
X 53.4108 40.5430 61.7110
X 53.4108 40.5430 62.4110
X 53.4108 40.5430 63.1110
X 53.4108 40.5430 63.8110
X 54.1108 40.5430 47.7110
X 54.1108 40.5430 48.4110
X 54.1108 40.5430 49.1110
X 54.1108 40.5430 49.8110
X 54.1108 40.5430 50.5110
X 54.1108 40.5430 51.2110
X 54.1108 40.5430 51.9110
X 54.1108 40.5430 52.6110
X 54.1108 40.5430 53.3110
X 54.1108 40.5430 54.0110
X 54.1108 40.5430 54.7110
X 54.1108 40.5430 55.4110
X 54.1108 40.5430 56.1110
X 54.1108 40.5430 56.8110
X 54.1108 40.5430 57.5110
X 54.1108 40.5430 58.2110
X 54.1108 40.5430 58.9110
X 54.1108 40.5430 59.6110
X 54.1108 40.5430 60.3110
X 54.1108 40.5430 61.0110
X 54.1108 40.5430 61.7110
X 54.1108 40.5430 62.4110
X 54.1108 40.5430 63.1110
X 54.1108 40.5430 63.8110
X 54.8108 40.5430 47.7110
X 54.8108 40.5430 48.4110
X 54.8108 40.5430 49.1110
X 54.8108 40.5430 49.8110
X 54.8108 40.5430 50.5110
X 54.8108 40.5430 51.2110
X 54.8108 40.5430 51.9110
X 54.8108 40.5430 52.6110
X 54.8108 40.5430 53.3110
X 54.8108 40.5430 54.0110
X 54.8108 40.5430 54.7110
X 54.8108 40.5430 55.4110
X 54.8108 40.5430 56.1110
X 54.8108 40.5430 56.8110
X 54.8108 40.5430 57.5110
X 54.8108 40.5430 58.2110
X 54.8108 40.5430 58.9110
X 54.8108 40.5430 59.6110
X 54.8108 40.5430 60.3110
X 54.8108 40.5430 61.0110
X 54.8108 40.5430 61.7110
X 54.8108 40.5430 62.4110
X 54.8108 40.5430 63.1110
X 54.8108 40.5430 63.8110
X 55.5108 40.5430 47.0110
X 55.5108 40.5430 47.7110
X 55.5108 40.5430 48.4110
X 55.5108 40.5430 49.1110
X 55.5108 40.5430 49.8110
X 55.5108 40.5430 50.5110
X 55.5108 40.5430 51.2110
X 55.5108 40.5430 51.9110
X 55.5108 40.5430 52.6110
X 55.5108 40.5430 53.3110
X 55.5108 40.5430 54.0110
X 55.5108 40.5430 54.7110
X 55.5108 40.5430 55.4110
X 55.5108 40.5430 56.1110
X 55.5108 40.5430 56.8110
X 55.5108 40.5430 57.5110
X 55.5108 40.5430 58.2110
X 55.5108 40.5430 58.9110
X 55.5108 40.5430 59.6110
X 55.5108 40.5430 60.3110
X 55.5108 40.5430 61.0110
X 55.5108 40.5430 61.7110
X 55.5108 40.5430 62.4110
X 55.5108 40.5430 63.1110
X 55.5108 40.5430 63.8110
X 55.5108 40.5430 64.5110
X 56.2108 40.5430 47.0110
X 56.2108 40.5430 47.7110
X 56.2108 40.5430 48.4110
X 56.2108 40.5430 49.1110
X 56.2108 40.5430 49.8110
X 56.2108 40.5430 50.5110
X 56.2108 40.5430 51.2110
X 56.2108 40.5430 51.9110
X 56.2108 40.5430 52.6110
X 56.2108 40.5430 53.3110
X 56.2108 40.5430 54.0110
X 56.2108 40.5430 54.7110
X 56.2108 40.5430 55.4110
X 56.2108 40.5430 56.1110
X 56.2108 40.5430 56.8110
X 56.2108 40.5430 57.5110
X 56.2108 40.5430 58.2110
X 56.2108 40.5430 58.9110
X 56.2108 40.5430 59.6110
X 56.2108 40.5430 60.3110
X 56.2108 40.5430 61.0110
X 56.2108 40.5430 61.7110
X 56.2108 40.5430 62.4110
X 56.2108 40.5430 63.1110
X 56.2108 40.5430 63.8110
X 56.2108 40.5430 64.5110
X 56.9108 40.5430 47.0110
X 56.9108 40.5430 47.7110
X 56.9108 40.5430 48.4110
X 56.9108 40.5430 49.1110
X 56.9108 40.5430 49.8110
X 56.9108 40.5430 50.5110
X 56.9108 40.5430 51.2110
X 56.9108 40.5430 51.9110
X 56.9108 40.5430 52.6110
X 56.9108 40.5430 53.3110
X 56.9108 40.5430 54.0110
X 56.9108 40.5430 54.7110
X 56.9108 40.5430 55.4110
X 56.9108 40.5430 56.1110
X 56.9108 40.5430 56.8110
X 56.9108 40.5430 57.5110
X 56.9108 40.5430 58.2110
X 56.9108 40.5430 58.9110
X 56.9108 40.5430 59.6110
X 56.9108 40.5430 60.3110
X 56.9108 40.5430 61.0110
X 56.9108 40.5430 61.7110
X 56.9108 40.5430 62.4110
X 56.9108 40.5430 63.1110
X 56.9108 40.5430 63.8110
X 56.9108 40.5430 64.5110
X 57.6108 40.5430 47.0110
X 57.6108 40.5430 47.7110
X 57.6108 40.5430 48.4110
X 57.6108 40.5430 49.1110
X 57.6108 40.5430 49.8110
X 57.6108 40.5430 50.5110
X 57.6108 40.5430 51.2110
X 57.6108 40.5430 51.9110
X 57.6108 40.5430 52.6110
X 57.6108 40.5430 53.3110
X 57.6108 40.5430 54.0110
X 57.6108 40.5430 54.7110
X 57.6108 40.5430 55.4110
X 57.6108 40.5430 56.1110
X 57.6108 40.5430 56.8110
X 57.6108 40.5430 57.5110
X 57.6108 40.5430 58.2110
X 57.6108 40.5430 58.9110
X 57.6108 40.5430 59.6110
X 57.6108 40.5430 60.3110
X 57.6108 40.5430 61.0110
X 57.6108 40.5430 61.7110
X 57.6108 40.5430 62.4110
X 57.6108 40.5430 63.1110
X 57.6108 40.5430 63.8110
X 57.6108 40.5430 64.5110
X 58.3108 40.5430 47.0110
X 58.3108 40.5430 47.7110
X 58.3108 40.5430 48.4110
X 58.3108 40.5430 49.1110
X 58.3108 40.5430 49.8110
X 58.3108 40.5430 50.5110
X 58.3108 40.5430 51.2110
X 58.3108 40.5430 51.9110
X 58.3108 40.5430 52.6110
X 58.3108 40.5430 53.3110
X 58.3108 40.5430 54.0110
X 58.3108 40.5430 54.7110
X 58.3108 40.5430 55.4110
X 58.3108 40.5430 56.1110
X 58.3108 40.5430 56.8110
X 58.3108 40.5430 57.5110
X 58.3108 40.5430 58.2110
X 58.3108 40.5430 58.9110
X 58.3108 40.5430 59.6110
X 58.3108 40.5430 60.3110
X 58.3108 40.5430 61.0110
X 58.3108 40.5430 61.7110
X 58.3108 40.5430 62.4110
X 58.3108 40.5430 63.1110
X 58.3108 40.5430 63.8110
X 58.3108 40.5430 64.5110
X 59.0108 40.5430 47.0110
X 59.0108 40.5430 47.7110
X 59.0108 40.5430 48.4110
X 59.0108 40.5430 49.1110
X 59.0108 40.5430 49.8110
X 59.0108 40.5430 50.5110
X 59.0108 40.5430 51.2110
X 59.0108 40.5430 51.9110
X 59.0108 40.5430 52.6110
X 59.0108 40.5430 53.3110
X 59.0108 40.5430 54.0110
X 59.0108 40.5430 54.7110
X 59.0108 40.5430 55.4110
X 59.0108 40.5430 56.1110
X 59.0108 40.5430 56.8110
X 59.0108 40.5430 57.5110
X 59.0108 40.5430 58.2110
X 59.0108 40.5430 58.9110
X 59.0108 40.5430 59.6110
X 59.0108 40.5430 60.3110
X 59.0108 40.5430 61.0110
X 59.0108 40.5430 61.7110
X 59.0108 40.5430 62.4110
X 59.0108 40.5430 63.1110
X 59.0108 40.5430 63.8110
X 59.0108 40.5430 64.5110
X 59.7108 40.5430 47.7110
X 59.7108 40.5430 48.4110
X 59.7108 40.5430 49.1110
X 59.7108 40.5430 49.8110
X 59.7108 40.5430 50.5110
X 59.7108 40.5430 51.2110
X 59.7108 40.5430 51.9110
X 59.7108 40.5430 52.6110
X 59.7108 40.5430 53.3110
X 59.7108 40.5430 54.0110
X 59.7108 40.5430 54.7110
X 59.7108 40.5430 55.4110
X 59.7108 40.5430 56.1110
X 59.7108 40.5430 56.8110
X 59.7108 40.5430 57.5110
X 59.7108 40.5430 58.2110
X 59.7108 40.5430 58.9110
X 59.7108 40.5430 59.6110
X 59.7108 40.5430 60.3110
X 59.7108 40.5430 61.0110
X 59.7108 40.5430 61.7110
X 59.7108 40.5430 62.4110
X 59.7108 40.5430 63.1110
X 59.7108 40.5430 63.8110
X 59.7108 40.5430 64.5110
X 60.4108 40.5430 47.7110
X 60.4108 40.5430 48.4110
X 60.4108 40.5430 49.1110
X 60.4108 40.5430 49.8110
X 60.4108 40.5430 50.5110
X 60.4108 40.5430 51.2110
X 60.4108 40.5430 51.9110
X 60.4108 40.5430 52.6110
X 60.4108 40.5430 53.3110
X 60.4108 40.5430 54.0110
X 60.4108 40.5430 54.7110
X 60.4108 40.5430 55.4110
X 60.4108 40.5430 56.1110
X 60.4108 40.5430 56.8110
X 60.4108 40.5430 57.5110
X 60.4108 40.5430 58.2110
X 60.4108 40.5430 58.9110
X 60.4108 40.5430 59.6110
X 60.4108 40.5430 60.3110
X 60.4108 40.5430 61.0110
X 60.4108 40.5430 61.7110
X 60.4108 40.5430 62.4110
X 60.4108 40.5430 63.1110
X 60.4108 40.5430 63.8110
X 60.4108 40.5430 64.5110
X 61.1108 40.5430 47.7110
X 61.1108 40.5430 48.4110
X 61.1108 40.5430 49.1110
X 61.1108 40.5430 49.8110
X 61.1108 40.5430 50.5110
X 61.1108 40.5430 51.2110
X 61.1108 40.5430 51.9110
X 61.1108 40.5430 52.6110
X 61.1108 40.5430 53.3110
X 61.1108 40.5430 54.0110
X 61.1108 40.5430 54.7110
X 61.1108 40.5430 55.4110
X 61.1108 40.5430 56.1110
X 61.1108 40.5430 56.8110
X 61.1108 40.5430 57.5110
X 61.1108 40.5430 58.2110
X 61.1108 40.5430 58.9110
X 61.1108 40.5430 59.6110
X 61.1108 40.5430 60.3110
X 61.1108 40.5430 61.0110
X 61.1108 40.5430 61.7110
X 61.1108 40.5430 62.4110
X 61.1108 40.5430 63.1110
X 61.1108 40.5430 63.8110
X 61.8108 40.5430 47.7110
X 61.8108 40.5430 48.4110
X 61.8108 40.5430 49.1110
X 61.8108 40.5430 49.8110
X 61.8108 40.5430 50.5110
X 61.8108 40.5430 51.2110
X 61.8108 40.5430 51.9110
X 61.8108 40.5430 52.6110
X 61.8108 40.5430 53.3110
X 61.8108 40.5430 54.0110
X 61.8108 40.5430 54.7110
X 61.8108 40.5430 55.4110
X 61.8108 40.5430 56.1110
X 61.8108 40.5430 56.8110
X 61.8108 40.5430 57.5110
X 61.8108 40.5430 58.2110
X 61.8108 40.5430 58.9110
X 61.8108 40.5430 59.6110
X 61.8108 40.5430 60.3110
X 61.8108 40.5430 61.0110
X 61.8108 40.5430 61.7110
X 61.8108 40.5430 62.4110
X 61.8108 40.5430 63.1110
X 61.8108 40.5430 63.8110
X 62.5108 40.5430 48.4110
X 62.5108 40.5430 49.1110
X 62.5108 40.5430 49.8110
X 62.5108 40.5430 50.5110
X 62.5108 40.5430 51.2110
X 62.5108 40.5430 51.9110
X 62.5108 40.5430 52.6110
X 62.5108 40.5430 53.3110
X 62.5108 40.5430 54.0110
X 62.5108 40.5430 54.7110
X 62.5108 40.5430 55.4110
X 62.5108 40.5430 56.1110
X 62.5108 40.5430 56.8110
X 62.5108 40.5430 57.5110
X 62.5108 40.5430 58.2110
X 62.5108 40.5430 58.9110
X 62.5108 40.5430 59.6110
X 62.5108 40.5430 60.3110
X 62.5108 40.5430 61.0110
X 62.5108 40.5430 61.7110
X 62.5108 40.5430 62.4110
X 62.5108 40.5430 63.1110
X 62.5108 40.5430 63.8110
X 63.2108 40.5430 48.4110
X 63.2108 40.5430 49.1110
X 63.2108 40.5430 49.8110
X 63.2108 40.5430 50.5110
X 63.2108 40.5430 51.2110
X 63.2108 40.5430 51.9110
X 63.2108 40.5430 52.6110
X 63.2108 40.5430 53.3110
X 63.2108 40.5430 54.0110
X 63.2108 40.5430 54.7110
X 63.2108 40.5430 55.4110
X 63.2108 40.5430 56.1110
X 63.2108 40.5430 56.8110
X 63.2108 40.5430 57.5110
X 63.2108 40.5430 58.2110
X 63.2108 40.5430 58.9110
X 63.2108 40.5430 59.6110
X 63.2108 40.5430 60.3110
X 63.2108 40.5430 61.0110
X 63.2108 40.5430 61.7110
X 63.2108 40.5430 62.4110
X 63.2108 40.5430 63.1110
X 63.2108 40.5430 63.8110
X 63.9108 40.5430 49.1110
X 63.9108 40.5430 49.8110
X 63.9108 40.5430 50.5110
X 63.9108 40.5430 51.2110
X 63.9108 40.5430 51.9110
X 63.9108 40.5430 52.6110
X 63.9108 40.5430 53.3110
X 63.9108 40.5430 54.0110
X 63.9108 40.5430 54.7110
X 63.9108 40.5430 55.4110
X 63.9108 40.5430 56.1110
X 63.9108 40.5430 56.8110
X 63.9108 40.5430 57.5110
X 63.9108 40.5430 58.2110
X 63.9108 40.5430 58.9110
X 63.9108 40.5430 59.6110
X 63.9108 40.5430 60.3110
X 63.9108 40.5430 61.0110
X 63.9108 40.5430 61.7110
X 63.9108 40.5430 62.4110
X 63.9108 40.5430 63.1110
X 64.6108 40.5430 49.8110
X 64.6108 40.5430 50.5110
X 64.6108 40.5430 51.2110
X 64.6108 40.5430 51.9110
X 64.6108 40.5430 52.6110
X 64.6108 40.5430 53.3110
X 64.6108 40.5430 54.0110
X 64.6108 40.5430 54.7110
X 64.6108 40.5430 55.4110
X 64.6108 40.5430 56.1110
X 64.6108 40.5430 56.8110
X 64.6108 40.5430 57.5110
X 64.6108 40.5430 58.2110
X 64.6108 40.5430 58.9110
X 64.6108 40.5430 59.6110
X 64.6108 40.5430 60.3110
X 64.6108 40.5430 61.0110
X 64.6108 40.5430 61.7110
X 64.6108 40.5430 62.4110
X 64.6108 40.5430 63.1110
X 65.3108 40.5430 51.2110
X 65.3108 40.5430 51.9110
X 65.3108 40.5430 52.6110
X 65.3108 40.5430 53.3110
X 65.3108 40.5430 54.0110
X 65.3108 40.5430 54.7110
X 65.3108 40.5430 55.4110
X 65.3108 40.5430 56.1110
X 65.3108 40.5430 56.8110
X 65.3108 40.5430 57.5110
X 65.3108 40.5430 58.2110
X 65.3108 40.5430 58.9110
X 65.3108 40.5430 59.6110
X 65.3108 40.5430 60.3110
X 65.3108 40.5430 61.0110
X 65.3108 40.5430 61.7110
X 65.3108 40.5430 62.4110
X 66.0108 40.5430 52.6110
X 66.0108 40.5430 53.3110
X 66.0108 40.5430 54.0110
X 66.0108 40.5430 54.7110
X 66.0108 40.5430 55.4110
X 66.0108 40.5430 56.1110
X 66.0108 40.5430 56.8110
X 66.0108 40.5430 57.5110
X 66.0108 40.5430 58.2110
X 66.0108 40.5430 58.9110
X 66.0108 40.5430 59.6110
X 66.0108 40.5430 60.3110
X 66.0108 40.5430 61.0110
X 66.0108 40.5430 61.7110
X 66.7108 40.5430 53.3110
X 66.7108 40.5430 54.0110
X 66.7108 40.5430 54.7110
X 66.7108 40.5430 55.4110
X 66.7108 40.5430 56.1110
X 66.7108 40.5430 56.8110
X 66.7108 40.5430 57.5110
X 66.7108 40.5430 58.2110
X 66.7108 40.5430 58.9110
X 66.7108 40.5430 59.6110
X 66.7108 40.5430 60.3110
X 66.7108 40.5430 61.0110
X 67.4108 40.5430 54.7110
X 67.4108 40.5430 55.4110
X 67.4108 40.5430 56.1110
X 67.4108 40.5430 56.8110
X 67.4108 40.5430 57.5110
X 67.4108 40.5430 58.2110
X 67.4108 40.5430 58.9110
X 67.4108 40.5430 59.6110
X 49.9108 41.2430 55.4110
X 49.9108 41.2430 56.1110
X 49.9108 41.2430 56.8110
X 49.9108 41.2430 57.5110
X 49.9108 41.2430 58.2110
X 49.9108 41.2430 58.9110
X 50.6108 41.2430 54.0110
X 50.6108 41.2430 54.7110
X 50.6108 41.2430 55.4110
X 50.6108 41.2430 56.1110
X 50.6108 41.2430 56.8110
X 50.6108 41.2430 57.5110
X 50.6108 41.2430 58.2110
X 50.6108 41.2430 58.9110
X 50.6108 41.2430 59.6110
X 50.6108 41.2430 60.3110
X 51.3108 41.2430 52.6110
X 51.3108 41.2430 53.3110
X 51.3108 41.2430 54.0110
X 51.3108 41.2430 54.7110
X 51.3108 41.2430 55.4110
X 51.3108 41.2430 56.1110
X 51.3108 41.2430 56.8110
X 51.3108 41.2430 57.5110
X 51.3108 41.2430 58.2110
X 51.3108 41.2430 58.9110
X 51.3108 41.2430 59.6110
X 51.3108 41.2430 60.3110
X 51.3108 41.2430 61.0110
X 52.0108 41.2430 50.5110
X 52.0108 41.2430 51.2110
X 52.0108 41.2430 51.9110
X 52.0108 41.2430 52.6110
X 52.0108 41.2430 53.3110
X 52.0108 41.2430 54.0110
X 52.0108 41.2430 54.7110
X 52.0108 41.2430 55.4110
X 52.0108 41.2430 56.1110
X 52.0108 41.2430 56.8110
X 52.0108 41.2430 57.5110
X 52.0108 41.2430 58.2110
X 52.0108 41.2430 58.9110
X 52.0108 41.2430 59.6110
X 52.0108 41.2430 60.3110
X 52.0108 41.2430 61.0110
X 52.0108 41.2430 61.7110
X 52.7108 41.2430 49.8110
X 52.7108 41.2430 50.5110
X 52.7108 41.2430 51.2110
X 52.7108 41.2430 51.9110
X 52.7108 41.2430 52.6110
X 52.7108 41.2430 53.3110
X 52.7108 41.2430 54.0110
X 52.7108 41.2430 54.7110
X 52.7108 41.2430 55.4110
X 52.7108 41.2430 56.1110
X 52.7108 41.2430 56.8110
X 52.7108 41.2430 57.5110
X 52.7108 41.2430 58.2110
X 52.7108 41.2430 58.9110
X 52.7108 41.2430 59.6110
X 52.7108 41.2430 60.3110
X 52.7108 41.2430 61.0110
X 52.7108 41.2430 61.7110
X 52.7108 41.2430 62.4110
X 53.4108 41.2430 49.1110
X 53.4108 41.2430 49.8110
X 53.4108 41.2430 50.5110
X 53.4108 41.2430 51.2110
X 53.4108 41.2430 51.9110
X 53.4108 41.2430 52.6110
X 53.4108 41.2430 53.3110
X 53.4108 41.2430 54.0110
X 53.4108 41.2430 54.7110
X 53.4108 41.2430 55.4110
X 53.4108 41.2430 56.1110
X 53.4108 41.2430 56.8110
X 53.4108 41.2430 57.5110
X 53.4108 41.2430 58.2110
X 53.4108 41.2430 58.9110
X 53.4108 41.2430 59.6110
X 53.4108 41.2430 60.3110
X 53.4108 41.2430 61.0110
X 53.4108 41.2430 61.7110
X 53.4108 41.2430 62.4110
X 53.4108 41.2430 63.1110
X 54.1108 41.2430 48.4110
X 54.1108 41.2430 49.1110
X 54.1108 41.2430 49.8110
X 54.1108 41.2430 50.5110
X 54.1108 41.2430 51.2110
X 54.1108 41.2430 51.9110
X 54.1108 41.2430 52.6110
X 54.1108 41.2430 53.3110
X 54.1108 41.2430 54.0110
X 54.1108 41.2430 54.7110
X 54.1108 41.2430 55.4110
X 54.1108 41.2430 56.1110
X 54.1108 41.2430 56.8110
X 54.1108 41.2430 57.5110
X 54.1108 41.2430 58.2110
X 54.1108 41.2430 58.9110
X 54.1108 41.2430 59.6110
X 54.1108 41.2430 60.3110
X 54.1108 41.2430 61.0110
X 54.1108 41.2430 61.7110
X 54.1108 41.2430 62.4110
X 54.1108 41.2430 63.1110
X 54.8108 41.2430 48.4110
X 54.8108 41.2430 49.1110
X 54.8108 41.2430 49.8110
X 54.8108 41.2430 50.5110
X 54.8108 41.2430 51.2110
X 54.8108 41.2430 51.9110
X 54.8108 41.2430 52.6110
X 54.8108 41.2430 53.3110
X 54.8108 41.2430 54.0110
X 54.8108 41.2430 54.7110
X 54.8108 41.2430 55.4110
X 54.8108 41.2430 56.1110
X 54.8108 41.2430 56.8110
X 54.8108 41.2430 57.5110
X 54.8108 41.2430 58.2110
X 54.8108 41.2430 58.9110
X 54.8108 41.2430 59.6110
X 54.8108 41.2430 60.3110
X 54.8108 41.2430 61.0110
X 54.8108 41.2430 61.7110
X 54.8108 41.2430 62.4110
X 54.8108 41.2430 63.1110
X 54.8108 41.2430 63.8110
X 55.5108 41.2430 47.7110
X 55.5108 41.2430 48.4110
X 55.5108 41.2430 49.1110
X 55.5108 41.2430 49.8110
X 55.5108 41.2430 50.5110
X 55.5108 41.2430 51.2110
X 55.5108 41.2430 51.9110
X 55.5108 41.2430 52.6110
X 55.5108 41.2430 53.3110
X 55.5108 41.2430 54.0110
X 55.5108 41.2430 54.7110
X 55.5108 41.2430 55.4110
X 55.5108 41.2430 56.1110
X 55.5108 41.2430 56.8110
X 55.5108 41.2430 57.5110
X 55.5108 41.2430 58.2110
X 55.5108 41.2430 58.9110
X 55.5108 41.2430 59.6110
X 55.5108 41.2430 60.3110
X 55.5108 41.2430 61.0110
X 55.5108 41.2430 61.7110
X 55.5108 41.2430 62.4110
X 55.5108 41.2430 63.1110
X 55.5108 41.2430 63.8110
X 56.2108 41.2430 47.7110
X 56.2108 41.2430 48.4110
X 56.2108 41.2430 49.1110
X 56.2108 41.2430 49.8110
X 56.2108 41.2430 50.5110
X 56.2108 41.2430 51.2110
X 56.2108 41.2430 51.9110
X 56.2108 41.2430 52.6110
X 56.2108 41.2430 53.3110
X 56.2108 41.2430 54.0110
X 56.2108 41.2430 54.7110
X 56.2108 41.2430 55.4110
X 56.2108 41.2430 56.1110
X 56.2108 41.2430 56.8110
X 56.2108 41.2430 57.5110
X 56.2108 41.2430 58.2110
X 56.2108 41.2430 58.9110
X 56.2108 41.2430 59.6110
X 56.2108 41.2430 60.3110
X 56.2108 41.2430 61.0110
X 56.2108 41.2430 61.7110
X 56.2108 41.2430 62.4110
X 56.2108 41.2430 63.1110
X 56.2108 41.2430 63.8110
X 56.9108 41.2430 47.7110
X 56.9108 41.2430 48.4110
X 56.9108 41.2430 49.1110
X 56.9108 41.2430 49.8110
X 56.9108 41.2430 50.5110
X 56.9108 41.2430 51.2110
X 56.9108 41.2430 51.9110
X 56.9108 41.2430 52.6110
X 56.9108 41.2430 53.3110
X 56.9108 41.2430 54.0110
X 56.9108 41.2430 54.7110
X 56.9108 41.2430 55.4110
X 56.9108 41.2430 56.1110
X 56.9108 41.2430 56.8110
X 56.9108 41.2430 57.5110
X 56.9108 41.2430 58.2110
X 56.9108 41.2430 58.9110
X 56.9108 41.2430 59.6110
X 56.9108 41.2430 60.3110
X 56.9108 41.2430 61.0110
X 56.9108 41.2430 61.7110
X 56.9108 41.2430 62.4110
X 56.9108 41.2430 63.1110
X 56.9108 41.2430 63.8110
X 57.6108 41.2430 47.7110
X 57.6108 41.2430 48.4110
X 57.6108 41.2430 49.1110
X 57.6108 41.2430 49.8110
X 57.6108 41.2430 50.5110
X 57.6108 41.2430 51.2110
X 57.6108 41.2430 51.9110
X 57.6108 41.2430 52.6110
X 57.6108 41.2430 53.3110
X 57.6108 41.2430 54.0110
X 57.6108 41.2430 54.7110
X 57.6108 41.2430 55.4110
X 57.6108 41.2430 56.1110
X 57.6108 41.2430 56.8110
X 57.6108 41.2430 57.5110
X 57.6108 41.2430 58.2110
X 57.6108 41.2430 58.9110
X 57.6108 41.2430 59.6110
X 57.6108 41.2430 60.3110
X 57.6108 41.2430 61.0110
X 57.6108 41.2430 61.7110
X 57.6108 41.2430 62.4110
X 57.6108 41.2430 63.1110
X 57.6108 41.2430 63.8110
X 58.3108 41.2430 47.7110
X 58.3108 41.2430 48.4110
X 58.3108 41.2430 49.1110
X 58.3108 41.2430 49.8110
X 58.3108 41.2430 50.5110
X 58.3108 41.2430 51.2110
X 58.3108 41.2430 51.9110
X 58.3108 41.2430 52.6110
X 58.3108 41.2430 53.3110
X 58.3108 41.2430 54.0110
X 58.3108 41.2430 54.7110
X 58.3108 41.2430 55.4110
X 58.3108 41.2430 56.1110
X 58.3108 41.2430 56.8110
X 58.3108 41.2430 57.5110
X 58.3108 41.2430 58.2110
X 58.3108 41.2430 58.9110
X 58.3108 41.2430 59.6110
X 58.3108 41.2430 60.3110
X 58.3108 41.2430 61.0110
X 58.3108 41.2430 61.7110
X 58.3108 41.2430 62.4110
X 58.3108 41.2430 63.1110
X 58.3108 41.2430 63.8110
X 59.0108 41.2430 47.7110
X 59.0108 41.2430 48.4110
X 59.0108 41.2430 49.1110
X 59.0108 41.2430 49.8110
X 59.0108 41.2430 50.5110
X 59.0108 41.2430 51.2110
X 59.0108 41.2430 51.9110
X 59.0108 41.2430 52.6110
X 59.0108 41.2430 53.3110
X 59.0108 41.2430 54.0110
X 59.0108 41.2430 54.7110
X 59.0108 41.2430 55.4110
X 59.0108 41.2430 56.1110
X 59.0108 41.2430 56.8110
X 59.0108 41.2430 57.5110
X 59.0108 41.2430 58.2110
X 59.0108 41.2430 58.9110
X 59.0108 41.2430 59.6110
X 59.0108 41.2430 60.3110
X 59.0108 41.2430 61.0110
X 59.0108 41.2430 61.7110
X 59.0108 41.2430 62.4110
X 59.0108 41.2430 63.1110
X 59.0108 41.2430 63.8110
X 59.7108 41.2430 48.4110
X 59.7108 41.2430 49.1110
X 59.7108 41.2430 49.8110
X 59.7108 41.2430 50.5110
X 59.7108 41.2430 51.2110
X 59.7108 41.2430 51.9110
X 59.7108 41.2430 52.6110
X 59.7108 41.2430 53.3110
X 59.7108 41.2430 54.0110
X 59.7108 41.2430 54.7110
X 59.7108 41.2430 55.4110
X 59.7108 41.2430 56.1110
X 59.7108 41.2430 56.8110
X 59.7108 41.2430 57.5110
X 59.7108 41.2430 58.2110
X 59.7108 41.2430 58.9110
X 59.7108 41.2430 59.6110
X 59.7108 41.2430 60.3110
X 59.7108 41.2430 61.0110
X 59.7108 41.2430 61.7110
X 59.7108 41.2430 62.4110
X 59.7108 41.2430 63.1110
X 59.7108 41.2430 63.8110
X 60.4108 41.2430 48.4110
X 60.4108 41.2430 49.1110
X 60.4108 41.2430 49.8110
X 60.4108 41.2430 50.5110
X 60.4108 41.2430 51.2110
X 60.4108 41.2430 51.9110
X 60.4108 41.2430 52.6110
X 60.4108 41.2430 53.3110
X 60.4108 41.2430 54.0110
X 60.4108 41.2430 54.7110
X 60.4108 41.2430 55.4110
X 60.4108 41.2430 56.1110
X 60.4108 41.2430 56.8110
X 60.4108 41.2430 57.5110
X 60.4108 41.2430 58.2110
X 60.4108 41.2430 58.9110
X 60.4108 41.2430 59.6110
X 60.4108 41.2430 60.3110
X 60.4108 41.2430 61.0110
X 60.4108 41.2430 61.7110
X 60.4108 41.2430 62.4110
X 60.4108 41.2430 63.1110
X 60.4108 41.2430 63.8110
X 61.1108 41.2430 48.4110
X 61.1108 41.2430 49.1110
X 61.1108 41.2430 49.8110
X 61.1108 41.2430 50.5110
X 61.1108 41.2430 51.2110
X 61.1108 41.2430 51.9110
X 61.1108 41.2430 52.6110
X 61.1108 41.2430 53.3110
X 61.1108 41.2430 54.0110
X 61.1108 41.2430 54.7110
X 61.1108 41.2430 55.4110
X 61.1108 41.2430 56.1110
X 61.1108 41.2430 56.8110
X 61.1108 41.2430 57.5110
X 61.1108 41.2430 58.2110
X 61.1108 41.2430 58.9110
X 61.1108 41.2430 59.6110
X 61.1108 41.2430 60.3110
X 61.1108 41.2430 61.0110
X 61.1108 41.2430 61.7110
X 61.1108 41.2430 62.4110
X 61.1108 41.2430 63.1110
X 61.1108 41.2430 63.8110
X 61.8108 41.2430 48.4110
X 61.8108 41.2430 49.1110
X 61.8108 41.2430 49.8110
X 61.8108 41.2430 50.5110
X 61.8108 41.2430 51.2110
X 61.8108 41.2430 51.9110
X 61.8108 41.2430 52.6110
X 61.8108 41.2430 53.3110
X 61.8108 41.2430 54.0110
X 61.8108 41.2430 54.7110
X 61.8108 41.2430 55.4110
X 61.8108 41.2430 56.1110
X 61.8108 41.2430 56.8110
X 61.8108 41.2430 57.5110
X 61.8108 41.2430 58.2110
X 61.8108 41.2430 58.9110
X 61.8108 41.2430 59.6110
X 61.8108 41.2430 60.3110
X 61.8108 41.2430 61.0110
X 61.8108 41.2430 61.7110
X 61.8108 41.2430 62.4110
X 61.8108 41.2430 63.1110
X 61.8108 41.2430 63.8110
X 62.5108 41.2430 49.1110
X 62.5108 41.2430 49.8110
X 62.5108 41.2430 50.5110
X 62.5108 41.2430 51.2110
X 62.5108 41.2430 51.9110
X 62.5108 41.2430 52.6110
X 62.5108 41.2430 53.3110
X 62.5108 41.2430 54.0110
X 62.5108 41.2430 54.7110
X 62.5108 41.2430 55.4110
X 62.5108 41.2430 56.1110
X 62.5108 41.2430 56.8110
X 62.5108 41.2430 57.5110
X 62.5108 41.2430 58.2110
X 62.5108 41.2430 58.9110
X 62.5108 41.2430 59.6110
X 62.5108 41.2430 60.3110
X 62.5108 41.2430 61.0110
X 62.5108 41.2430 61.7110
X 62.5108 41.2430 62.4110
X 62.5108 41.2430 63.1110
X 63.2108 41.2430 49.8110
X 63.2108 41.2430 50.5110
X 63.2108 41.2430 51.2110
X 63.2108 41.2430 51.9110
X 63.2108 41.2430 52.6110
X 63.2108 41.2430 53.3110
X 63.2108 41.2430 54.0110
X 63.2108 41.2430 54.7110
X 63.2108 41.2430 55.4110
X 63.2108 41.2430 56.1110
X 63.2108 41.2430 56.8110
X 63.2108 41.2430 57.5110
X 63.2108 41.2430 58.2110
X 63.2108 41.2430 58.9110
X 63.2108 41.2430 59.6110
X 63.2108 41.2430 60.3110
X 63.2108 41.2430 61.0110
X 63.2108 41.2430 61.7110
X 63.2108 41.2430 62.4110
X 63.2108 41.2430 63.1110
X 63.9108 41.2430 50.5110
X 63.9108 41.2430 51.2110
X 63.9108 41.2430 51.9110
X 63.9108 41.2430 52.6110
X 63.9108 41.2430 53.3110
X 63.9108 41.2430 54.0110
X 63.9108 41.2430 54.7110
X 63.9108 41.2430 55.4110
X 63.9108 41.2430 56.1110
X 63.9108 41.2430 56.8110
X 63.9108 41.2430 57.5110
X 63.9108 41.2430 58.2110
X 63.9108 41.2430 58.9110
X 63.9108 41.2430 59.6110
X 63.9108 41.2430 60.3110
X 63.9108 41.2430 61.0110
X 63.9108 41.2430 61.7110
X 63.9108 41.2430 62.4110
X 64.6108 41.2430 51.9110
X 64.6108 41.2430 52.6110
X 64.6108 41.2430 53.3110
X 64.6108 41.2430 54.0110
X 64.6108 41.2430 54.7110
X 64.6108 41.2430 55.4110
X 64.6108 41.2430 56.1110
X 64.6108 41.2430 56.8110
X 64.6108 41.2430 57.5110
X 64.6108 41.2430 58.2110
X 64.6108 41.2430 58.9110
X 64.6108 41.2430 59.6110
X 64.6108 41.2430 60.3110
X 64.6108 41.2430 61.0110
X 64.6108 41.2430 61.7110
X 64.6108 41.2430 62.4110
X 65.3108 41.2430 52.6110
X 65.3108 41.2430 53.3110
X 65.3108 41.2430 54.0110
X 65.3108 41.2430 54.7110
X 65.3108 41.2430 55.4110
X 65.3108 41.2430 56.1110
X 65.3108 41.2430 56.8110
X 65.3108 41.2430 57.5110
X 65.3108 41.2430 58.2110
X 65.3108 41.2430 58.9110
X 65.3108 41.2430 59.6110
X 65.3108 41.2430 60.3110
X 65.3108 41.2430 61.0110
X 65.3108 41.2430 61.7110
X 66.0108 41.2430 53.3110
X 66.0108 41.2430 54.0110
X 66.0108 41.2430 54.7110
X 66.0108 41.2430 55.4110
X 66.0108 41.2430 56.1110
X 66.0108 41.2430 56.8110
X 66.0108 41.2430 57.5110
X 66.0108 41.2430 58.2110
X 66.0108 41.2430 58.9110
X 66.0108 41.2430 59.6110
X 66.0108 41.2430 60.3110
X 66.0108 41.2430 61.0110
X 66.7108 41.2430 54.0110
X 66.7108 41.2430 54.7110
X 66.7108 41.2430 55.4110
X 66.7108 41.2430 56.1110
X 66.7108 41.2430 56.8110
X 66.7108 41.2430 57.5110
X 66.7108 41.2430 58.2110
X 66.7108 41.2430 58.9110
X 66.7108 41.2430 59.6110
X 67.4108 41.2430 56.8110
X 67.4108 41.2430 57.5110
X 50.6108 41.9430 55.4110
X 50.6108 41.9430 56.1110
X 50.6108 41.9430 56.8110
X 50.6108 41.9430 57.5110
X 50.6108 41.9430 58.2110
X 50.6108 41.9430 58.9110
X 51.3108 41.9430 54.0110
X 51.3108 41.9430 54.7110
X 51.3108 41.9430 55.4110
X 51.3108 41.9430 56.1110
X 51.3108 41.9430 56.8110
X 51.3108 41.9430 57.5110
X 51.3108 41.9430 58.2110
X 51.3108 41.9430 58.9110
X 51.3108 41.9430 59.6110
X 51.3108 41.9430 60.3110
X 52.0108 41.9430 52.6110
X 52.0108 41.9430 53.3110
X 52.0108 41.9430 54.0110
X 52.0108 41.9430 54.7110
X 52.0108 41.9430 55.4110
X 52.0108 41.9430 56.1110
X 52.0108 41.9430 56.8110
X 52.0108 41.9430 57.5110
X 52.0108 41.9430 58.2110
X 52.0108 41.9430 58.9110
X 52.0108 41.9430 59.6110
X 52.0108 41.9430 60.3110
X 52.0108 41.9430 61.0110
X 52.7108 41.9430 51.2110
X 52.7108 41.9430 51.9110
X 52.7108 41.9430 52.6110
X 52.7108 41.9430 53.3110
X 52.7108 41.9430 54.0110
X 52.7108 41.9430 54.7110
X 52.7108 41.9430 55.4110
X 52.7108 41.9430 56.1110
X 52.7108 41.9430 56.8110
X 52.7108 41.9430 57.5110
X 52.7108 41.9430 58.2110
X 52.7108 41.9430 58.9110
X 52.7108 41.9430 59.6110
X 52.7108 41.9430 60.3110
X 52.7108 41.9430 61.0110
X 52.7108 41.9430 61.7110
X 53.4108 41.9430 50.5110
X 53.4108 41.9430 51.2110
X 53.4108 41.9430 51.9110
X 53.4108 41.9430 52.6110
X 53.4108 41.9430 53.3110
X 53.4108 41.9430 54.0110
X 53.4108 41.9430 54.7110
X 53.4108 41.9430 55.4110
X 53.4108 41.9430 56.1110
X 53.4108 41.9430 56.8110
X 53.4108 41.9430 57.5110
X 53.4108 41.9430 58.2110
X 53.4108 41.9430 58.9110
X 53.4108 41.9430 59.6110
X 53.4108 41.9430 60.3110
X 53.4108 41.9430 61.0110
X 53.4108 41.9430 61.7110
X 53.4108 41.9430 62.4110
X 54.1108 41.9430 49.8110
X 54.1108 41.9430 50.5110
X 54.1108 41.9430 51.2110
X 54.1108 41.9430 51.9110
X 54.1108 41.9430 52.6110
X 54.1108 41.9430 53.3110
X 54.1108 41.9430 54.0110
X 54.1108 41.9430 54.7110
X 54.1108 41.9430 55.4110
X 54.1108 41.9430 56.1110
X 54.1108 41.9430 56.8110
X 54.1108 41.9430 57.5110
X 54.1108 41.9430 58.2110
X 54.1108 41.9430 58.9110
X 54.1108 41.9430 59.6110
X 54.1108 41.9430 60.3110
X 54.1108 41.9430 61.0110
X 54.1108 41.9430 61.7110
X 54.1108 41.9430 62.4110
X 54.8108 41.9430 49.1110
X 54.8108 41.9430 49.8110
X 54.8108 41.9430 50.5110
X 54.8108 41.9430 51.2110
X 54.8108 41.9430 51.9110
X 54.8108 41.9430 52.6110
X 54.8108 41.9430 53.3110
X 54.8108 41.9430 54.0110
X 54.8108 41.9430 54.7110
X 54.8108 41.9430 55.4110
X 54.8108 41.9430 56.1110
X 54.8108 41.9430 56.8110
X 54.8108 41.9430 57.5110
X 54.8108 41.9430 58.2110
X 54.8108 41.9430 58.9110
X 54.8108 41.9430 59.6110
X 54.8108 41.9430 60.3110
X 54.8108 41.9430 61.0110
X 54.8108 41.9430 61.7110
X 54.8108 41.9430 62.4110
X 54.8108 41.9430 63.1110
X 55.5108 41.9430 49.1110
X 55.5108 41.9430 49.8110
X 55.5108 41.9430 50.5110
X 55.5108 41.9430 51.2110
X 55.5108 41.9430 51.9110
X 55.5108 41.9430 52.6110
X 55.5108 41.9430 53.3110
X 55.5108 41.9430 54.0110
X 55.5108 41.9430 54.7110
X 55.5108 41.9430 55.4110
X 55.5108 41.9430 56.1110
X 55.5108 41.9430 56.8110
X 55.5108 41.9430 57.5110
X 55.5108 41.9430 58.2110
X 55.5108 41.9430 58.9110
X 55.5108 41.9430 59.6110
X 55.5108 41.9430 60.3110
X 55.5108 41.9430 61.0110
X 55.5108 41.9430 61.7110
X 55.5108 41.9430 62.4110
X 55.5108 41.9430 63.1110
X 56.2108 41.9430 48.4110
X 56.2108 41.9430 49.1110
X 56.2108 41.9430 49.8110
X 56.2108 41.9430 50.5110
X 56.2108 41.9430 51.2110
X 56.2108 41.9430 51.9110
X 56.2108 41.9430 52.6110
X 56.2108 41.9430 53.3110
X 56.2108 41.9430 54.0110
X 56.2108 41.9430 54.7110
X 56.2108 41.9430 55.4110
X 56.2108 41.9430 56.1110
X 56.2108 41.9430 56.8110
X 56.2108 41.9430 57.5110
X 56.2108 41.9430 58.2110
X 56.2108 41.9430 58.9110
X 56.2108 41.9430 59.6110
X 56.2108 41.9430 60.3110
X 56.2108 41.9430 61.0110
X 56.2108 41.9430 61.7110
X 56.2108 41.9430 62.4110
X 56.2108 41.9430 63.1110
X 56.9108 41.9430 48.4110
X 56.9108 41.9430 49.1110
X 56.9108 41.9430 49.8110
X 56.9108 41.9430 50.5110
X 56.9108 41.9430 51.2110
X 56.9108 41.9430 51.9110
X 56.9108 41.9430 52.6110
X 56.9108 41.9430 53.3110
X 56.9108 41.9430 54.0110
X 56.9108 41.9430 54.7110
X 56.9108 41.9430 55.4110
X 56.9108 41.9430 56.1110
X 56.9108 41.9430 56.8110
X 56.9108 41.9430 57.5110
X 56.9108 41.9430 58.2110
X 56.9108 41.9430 58.9110
X 56.9108 41.9430 59.6110
X 56.9108 41.9430 60.3110
X 56.9108 41.9430 61.0110
X 56.9108 41.9430 61.7110
X 56.9108 41.9430 62.4110
X 56.9108 41.9430 63.1110
X 57.6108 41.9430 48.4110
X 57.6108 41.9430 49.1110
X 57.6108 41.9430 49.8110
X 57.6108 41.9430 50.5110
X 57.6108 41.9430 51.2110
X 57.6108 41.9430 51.9110
X 57.6108 41.9430 52.6110
X 57.6108 41.9430 53.3110
X 57.6108 41.9430 54.0110
X 57.6108 41.9430 54.7110
X 57.6108 41.9430 55.4110
X 57.6108 41.9430 56.1110
X 57.6108 41.9430 56.8110
X 57.6108 41.9430 57.5110
X 57.6108 41.9430 58.2110
X 57.6108 41.9430 58.9110
X 57.6108 41.9430 59.6110
X 57.6108 41.9430 60.3110
X 57.6108 41.9430 61.0110
X 57.6108 41.9430 61.7110
X 57.6108 41.9430 62.4110
X 57.6108 41.9430 63.1110
X 57.6108 41.9430 63.8110
X 58.3108 41.9430 48.4110
X 58.3108 41.9430 49.1110
X 58.3108 41.9430 49.8110
X 58.3108 41.9430 50.5110
X 58.3108 41.9430 51.2110
X 58.3108 41.9430 51.9110
X 58.3108 41.9430 52.6110
X 58.3108 41.9430 53.3110
X 58.3108 41.9430 54.0110
X 58.3108 41.9430 54.7110
X 58.3108 41.9430 55.4110
X 58.3108 41.9430 56.1110
X 58.3108 41.9430 56.8110
X 58.3108 41.9430 57.5110
X 58.3108 41.9430 58.2110
X 58.3108 41.9430 58.9110
X 58.3108 41.9430 59.6110
X 58.3108 41.9430 60.3110
X 58.3108 41.9430 61.0110
X 58.3108 41.9430 61.7110
X 58.3108 41.9430 62.4110
X 58.3108 41.9430 63.1110
X 58.3108 41.9430 63.8110
X 59.0108 41.9430 49.1110
X 59.0108 41.9430 49.8110
X 59.0108 41.9430 50.5110
X 59.0108 41.9430 51.2110
X 59.0108 41.9430 51.9110
X 59.0108 41.9430 52.6110
X 59.0108 41.9430 53.3110
X 59.0108 41.9430 54.0110
X 59.0108 41.9430 54.7110
X 59.0108 41.9430 55.4110
X 59.0108 41.9430 56.1110
X 59.0108 41.9430 56.8110
X 59.0108 41.9430 57.5110
X 59.0108 41.9430 58.2110
X 59.0108 41.9430 58.9110
X 59.0108 41.9430 59.6110
X 59.0108 41.9430 60.3110
X 59.0108 41.9430 61.0110
X 59.0108 41.9430 61.7110
X 59.0108 41.9430 62.4110
X 59.0108 41.9430 63.1110
X 59.0108 41.9430 63.8110
X 59.7108 41.9430 49.1110
X 59.7108 41.9430 49.8110
X 59.7108 41.9430 50.5110
X 59.7108 41.9430 51.2110
X 59.7108 41.9430 51.9110
X 59.7108 41.9430 52.6110
X 59.7108 41.9430 53.3110
X 59.7108 41.9430 54.0110
X 59.7108 41.9430 54.7110
X 59.7108 41.9430 55.4110
X 59.7108 41.9430 56.1110
X 59.7108 41.9430 56.8110
X 59.7108 41.9430 57.5110
X 59.7108 41.9430 58.2110
X 59.7108 41.9430 58.9110
X 59.7108 41.9430 59.6110
X 59.7108 41.9430 60.3110
X 59.7108 41.9430 61.0110
X 59.7108 41.9430 61.7110
X 59.7108 41.9430 62.4110
X 59.7108 41.9430 63.1110
X 59.7108 41.9430 63.8110
X 60.4108 41.9430 49.8110
X 60.4108 41.9430 50.5110
X 60.4108 41.9430 51.2110
X 60.4108 41.9430 51.9110
X 60.4108 41.9430 52.6110
X 60.4108 41.9430 53.3110
X 60.4108 41.9430 54.0110
X 60.4108 41.9430 54.7110
X 60.4108 41.9430 55.4110
X 60.4108 41.9430 56.1110
X 60.4108 41.9430 56.8110
X 60.4108 41.9430 57.5110
X 60.4108 41.9430 58.2110
X 60.4108 41.9430 58.9110
X 60.4108 41.9430 59.6110
X 60.4108 41.9430 60.3110
X 60.4108 41.9430 61.0110
X 60.4108 41.9430 61.7110
X 60.4108 41.9430 62.4110
X 60.4108 41.9430 63.1110
X 61.1108 41.9430 49.8110
X 61.1108 41.9430 50.5110
X 61.1108 41.9430 51.2110
X 61.1108 41.9430 51.9110
X 61.1108 41.9430 52.6110
X 61.1108 41.9430 53.3110
X 61.1108 41.9430 54.0110
X 61.1108 41.9430 54.7110
X 61.1108 41.9430 55.4110
X 61.1108 41.9430 56.1110
X 61.1108 41.9430 56.8110
X 61.1108 41.9430 57.5110
X 61.1108 41.9430 58.2110
X 61.1108 41.9430 58.9110
X 61.1108 41.9430 59.6110
X 61.1108 41.9430 60.3110
X 61.1108 41.9430 61.0110
X 61.1108 41.9430 61.7110
X 61.1108 41.9430 62.4110
X 61.1108 41.9430 63.1110
X 61.8108 41.9430 49.8110
X 61.8108 41.9430 50.5110
X 61.8108 41.9430 51.2110
X 61.8108 41.9430 51.9110
X 61.8108 41.9430 52.6110
X 61.8108 41.9430 53.3110
X 61.8108 41.9430 54.0110
X 61.8108 41.9430 54.7110
X 61.8108 41.9430 55.4110
X 61.8108 41.9430 56.1110
X 61.8108 41.9430 56.8110
X 61.8108 41.9430 57.5110
X 61.8108 41.9430 58.2110
X 61.8108 41.9430 58.9110
X 61.8108 41.9430 59.6110
X 61.8108 41.9430 60.3110
X 61.8108 41.9430 61.0110
X 61.8108 41.9430 61.7110
X 61.8108 41.9430 62.4110
X 61.8108 41.9430 63.1110
X 62.5108 41.9430 50.5110
X 62.5108 41.9430 51.2110
X 62.5108 41.9430 51.9110
X 62.5108 41.9430 52.6110
X 62.5108 41.9430 53.3110
X 62.5108 41.9430 54.0110
X 62.5108 41.9430 54.7110
X 62.5108 41.9430 55.4110
X 62.5108 41.9430 56.1110
X 62.5108 41.9430 56.8110
X 62.5108 41.9430 57.5110
X 62.5108 41.9430 58.2110
X 62.5108 41.9430 58.9110
X 62.5108 41.9430 59.6110
X 62.5108 41.9430 60.3110
X 62.5108 41.9430 61.0110
X 62.5108 41.9430 61.7110
X 62.5108 41.9430 62.4110
X 63.2108 41.9430 51.2110
X 63.2108 41.9430 51.9110
X 63.2108 41.9430 52.6110
X 63.2108 41.9430 53.3110
X 63.2108 41.9430 54.0110
X 63.2108 41.9430 54.7110
X 63.2108 41.9430 55.4110
X 63.2108 41.9430 56.1110
X 63.2108 41.9430 56.8110
X 63.2108 41.9430 57.5110
X 63.2108 41.9430 58.2110
X 63.2108 41.9430 58.9110
X 63.2108 41.9430 59.6110
X 63.2108 41.9430 60.3110
X 63.2108 41.9430 61.0110
X 63.2108 41.9430 61.7110
X 63.2108 41.9430 62.4110
X 63.9108 41.9430 51.9110
X 63.9108 41.9430 52.6110
X 63.9108 41.9430 53.3110
X 63.9108 41.9430 54.0110
X 63.9108 41.9430 54.7110
X 63.9108 41.9430 55.4110
X 63.9108 41.9430 56.1110
X 63.9108 41.9430 56.8110
X 63.9108 41.9430 57.5110
X 63.9108 41.9430 58.2110
X 63.9108 41.9430 58.9110
X 63.9108 41.9430 59.6110
X 63.9108 41.9430 60.3110
X 63.9108 41.9430 61.0110
X 63.9108 41.9430 61.7110
X 64.6108 41.9430 52.6110
X 64.6108 41.9430 53.3110
X 64.6108 41.9430 54.0110
X 64.6108 41.9430 54.7110
X 64.6108 41.9430 55.4110
X 64.6108 41.9430 56.1110
X 64.6108 41.9430 56.8110
X 64.6108 41.9430 57.5110
X 64.6108 41.9430 58.2110
X 64.6108 41.9430 58.9110
X 64.6108 41.9430 59.6110
X 64.6108 41.9430 60.3110
X 64.6108 41.9430 61.0110
X 65.3108 41.9430 53.3110
X 65.3108 41.9430 54.0110
X 65.3108 41.9430 54.7110
X 65.3108 41.9430 55.4110
X 65.3108 41.9430 56.1110
X 65.3108 41.9430 56.8110
X 65.3108 41.9430 57.5110
X 65.3108 41.9430 58.2110
X 65.3108 41.9430 58.9110
X 65.3108 41.9430 59.6110
X 65.3108 41.9430 60.3110
X 66.0108 41.9430 54.7110
X 66.0108 41.9430 55.4110
X 66.0108 41.9430 56.1110
X 66.0108 41.9430 56.8110
X 66.0108 41.9430 57.5110
X 66.0108 41.9430 58.2110
X 66.0108 41.9430 58.9110
X 66.0108 41.9430 59.6110
X 66.7108 41.9430 56.8110
X 66.7108 41.9430 57.5110
X 51.3108 42.6430 55.4110
X 51.3108 42.6430 56.1110
X 51.3108 42.6430 56.8110
X 51.3108 42.6430 57.5110
X 51.3108 42.6430 58.2110
X 51.3108 42.6430 58.9110
X 52.0108 42.6430 54.0110
X 52.0108 42.6430 54.7110
X 52.0108 42.6430 55.4110
X 52.0108 42.6430 56.1110
X 52.0108 42.6430 56.8110
X 52.0108 42.6430 57.5110
X 52.0108 42.6430 58.2110
X 52.0108 42.6430 58.9110
X 52.0108 42.6430 59.6110
X 52.0108 42.6430 60.3110
X 52.7108 42.6430 53.3110
X 52.7108 42.6430 54.0110
X 52.7108 42.6430 54.7110
X 52.7108 42.6430 55.4110
X 52.7108 42.6430 56.1110
X 52.7108 42.6430 56.8110
X 52.7108 42.6430 57.5110
X 52.7108 42.6430 58.2110
X 52.7108 42.6430 58.9110
X 52.7108 42.6430 59.6110
X 52.7108 42.6430 60.3110
X 52.7108 42.6430 61.0110
X 53.4108 42.6430 52.6110
X 53.4108 42.6430 53.3110
X 53.4108 42.6430 54.0110
X 53.4108 42.6430 54.7110
X 53.4108 42.6430 55.4110
X 53.4108 42.6430 56.1110
X 53.4108 42.6430 56.8110
X 53.4108 42.6430 57.5110
X 53.4108 42.6430 58.2110
X 53.4108 42.6430 58.9110
X 53.4108 42.6430 59.6110
X 53.4108 42.6430 60.3110
X 53.4108 42.6430 61.0110
X 53.4108 42.6430 61.7110
X 54.1108 42.6430 51.2110
X 54.1108 42.6430 51.9110
X 54.1108 42.6430 52.6110
X 54.1108 42.6430 53.3110
X 54.1108 42.6430 54.0110
X 54.1108 42.6430 54.7110
X 54.1108 42.6430 55.4110
X 54.1108 42.6430 56.1110
X 54.1108 42.6430 56.8110
X 54.1108 42.6430 57.5110
X 54.1108 42.6430 58.2110
X 54.1108 42.6430 58.9110
X 54.1108 42.6430 59.6110
X 54.1108 42.6430 60.3110
X 54.1108 42.6430 61.0110
X 54.1108 42.6430 61.7110
X 54.8108 42.6430 50.5110
X 54.8108 42.6430 51.2110
X 54.8108 42.6430 51.9110
X 54.8108 42.6430 52.6110
X 54.8108 42.6430 53.3110
X 54.8108 42.6430 54.0110
X 54.8108 42.6430 54.7110
X 54.8108 42.6430 55.4110
X 54.8108 42.6430 56.1110
X 54.8108 42.6430 56.8110
X 54.8108 42.6430 57.5110
X 54.8108 42.6430 58.2110
X 54.8108 42.6430 58.9110
X 54.8108 42.6430 59.6110
X 54.8108 42.6430 60.3110
X 54.8108 42.6430 61.0110
X 54.8108 42.6430 61.7110
X 54.8108 42.6430 62.4110
X 55.5108 42.6430 49.8110
X 55.5108 42.6430 50.5110
X 55.5108 42.6430 51.2110
X 55.5108 42.6430 51.9110
X 55.5108 42.6430 52.6110
X 55.5108 42.6430 53.3110
X 55.5108 42.6430 54.0110
X 55.5108 42.6430 54.7110
X 55.5108 42.6430 55.4110
X 55.5108 42.6430 56.1110
X 55.5108 42.6430 56.8110
X 55.5108 42.6430 57.5110
X 55.5108 42.6430 58.2110
X 55.5108 42.6430 58.9110
X 55.5108 42.6430 59.6110
X 55.5108 42.6430 60.3110
X 55.5108 42.6430 61.0110
X 55.5108 42.6430 61.7110
X 55.5108 42.6430 62.4110
X 56.2108 42.6430 49.8110
X 56.2108 42.6430 50.5110
X 56.2108 42.6430 51.2110
X 56.2108 42.6430 51.9110
X 56.2108 42.6430 52.6110
X 56.2108 42.6430 53.3110
X 56.2108 42.6430 54.0110
X 56.2108 42.6430 54.7110
X 56.2108 42.6430 55.4110
X 56.2108 42.6430 56.1110
X 56.2108 42.6430 56.8110
X 56.2108 42.6430 57.5110
X 56.2108 42.6430 58.2110
X 56.2108 42.6430 58.9110
X 56.2108 42.6430 59.6110
X 56.2108 42.6430 60.3110
X 56.2108 42.6430 61.0110
X 56.2108 42.6430 61.7110
X 56.2108 42.6430 62.4110
X 56.9108 42.6430 49.8110
X 56.9108 42.6430 50.5110
X 56.9108 42.6430 51.2110
X 56.9108 42.6430 51.9110
X 56.9108 42.6430 52.6110
X 56.9108 42.6430 53.3110
X 56.9108 42.6430 54.0110
X 56.9108 42.6430 54.7110
X 56.9108 42.6430 55.4110
X 56.9108 42.6430 56.1110
X 56.9108 42.6430 56.8110
X 56.9108 42.6430 57.5110
X 56.9108 42.6430 58.2110
X 56.9108 42.6430 58.9110
X 56.9108 42.6430 59.6110
X 56.9108 42.6430 60.3110
X 56.9108 42.6430 61.0110
X 56.9108 42.6430 61.7110
X 56.9108 42.6430 62.4110
X 56.9108 42.6430 63.1110
X 57.6108 42.6430 49.8110
X 57.6108 42.6430 50.5110
X 57.6108 42.6430 51.2110
X 57.6108 42.6430 51.9110
X 57.6108 42.6430 52.6110
X 57.6108 42.6430 53.3110
X 57.6108 42.6430 54.0110
X 57.6108 42.6430 54.7110
X 57.6108 42.6430 55.4110
X 57.6108 42.6430 56.1110
X 57.6108 42.6430 56.8110
X 57.6108 42.6430 57.5110
X 57.6108 42.6430 58.2110
X 57.6108 42.6430 58.9110
X 57.6108 42.6430 59.6110
X 57.6108 42.6430 60.3110
X 57.6108 42.6430 61.0110
X 57.6108 42.6430 61.7110
X 57.6108 42.6430 62.4110
X 57.6108 42.6430 63.1110
X 58.3108 42.6430 49.8110
X 58.3108 42.6430 50.5110
X 58.3108 42.6430 51.2110
X 58.3108 42.6430 51.9110
X 58.3108 42.6430 52.6110
X 58.3108 42.6430 53.3110
X 58.3108 42.6430 54.0110
X 58.3108 42.6430 54.7110
X 58.3108 42.6430 55.4110
X 58.3108 42.6430 56.1110
X 58.3108 42.6430 56.8110
X 58.3108 42.6430 57.5110
X 58.3108 42.6430 58.2110
X 58.3108 42.6430 58.9110
X 58.3108 42.6430 59.6110
X 58.3108 42.6430 60.3110
X 58.3108 42.6430 61.0110
X 58.3108 42.6430 61.7110
X 58.3108 42.6430 62.4110
X 58.3108 42.6430 63.1110
X 59.0108 42.6430 49.8110
X 59.0108 42.6430 50.5110
X 59.0108 42.6430 51.2110
X 59.0108 42.6430 51.9110
X 59.0108 42.6430 52.6110
X 59.0108 42.6430 53.3110
X 59.0108 42.6430 54.0110
X 59.0108 42.6430 54.7110
X 59.0108 42.6430 55.4110
X 59.0108 42.6430 56.1110
X 59.0108 42.6430 56.8110
X 59.0108 42.6430 57.5110
X 59.0108 42.6430 58.2110
X 59.0108 42.6430 58.9110
X 59.0108 42.6430 59.6110
X 59.0108 42.6430 60.3110
X 59.0108 42.6430 61.0110
X 59.0108 42.6430 61.7110
X 59.0108 42.6430 62.4110
X 59.0108 42.6430 63.1110
X 59.7108 42.6430 49.8110
X 59.7108 42.6430 50.5110
X 59.7108 42.6430 51.2110
X 59.7108 42.6430 51.9110
X 59.7108 42.6430 52.6110
X 59.7108 42.6430 53.3110
X 59.7108 42.6430 54.0110
X 59.7108 42.6430 54.7110
X 59.7108 42.6430 55.4110
X 59.7108 42.6430 56.1110
X 59.7108 42.6430 56.8110
X 59.7108 42.6430 57.5110
X 59.7108 42.6430 58.2110
X 59.7108 42.6430 58.9110
X 59.7108 42.6430 59.6110
X 59.7108 42.6430 60.3110
X 59.7108 42.6430 61.0110
X 59.7108 42.6430 61.7110
X 59.7108 42.6430 62.4110
X 59.7108 42.6430 63.1110
X 60.4108 42.6430 50.5110
X 60.4108 42.6430 51.2110
X 60.4108 42.6430 51.9110
X 60.4108 42.6430 52.6110
X 60.4108 42.6430 53.3110
X 60.4108 42.6430 54.0110
X 60.4108 42.6430 54.7110
X 60.4108 42.6430 55.4110
X 60.4108 42.6430 56.1110
X 60.4108 42.6430 56.8110
X 60.4108 42.6430 57.5110
X 60.4108 42.6430 58.2110
X 60.4108 42.6430 58.9110
X 60.4108 42.6430 59.6110
X 60.4108 42.6430 60.3110
X 60.4108 42.6430 61.0110
X 60.4108 42.6430 61.7110
X 60.4108 42.6430 62.4110
X 60.4108 42.6430 63.1110
X 61.1108 42.6430 50.5110
X 61.1108 42.6430 51.2110
X 61.1108 42.6430 51.9110
X 61.1108 42.6430 52.6110
X 61.1108 42.6430 53.3110
X 61.1108 42.6430 54.0110
X 61.1108 42.6430 54.7110
X 61.1108 42.6430 55.4110
X 61.1108 42.6430 56.1110
X 61.1108 42.6430 56.8110
X 61.1108 42.6430 57.5110
X 61.1108 42.6430 58.2110
X 61.1108 42.6430 58.9110
X 61.1108 42.6430 59.6110
X 61.1108 42.6430 60.3110
X 61.1108 42.6430 61.0110
X 61.1108 42.6430 61.7110
X 61.1108 42.6430 62.4110
X 61.8108 42.6430 50.5110
X 61.8108 42.6430 51.2110
X 61.8108 42.6430 51.9110
X 61.8108 42.6430 52.6110
X 61.8108 42.6430 53.3110
X 61.8108 42.6430 54.0110
X 61.8108 42.6430 54.7110
X 61.8108 42.6430 55.4110
X 61.8108 42.6430 56.1110
X 61.8108 42.6430 56.8110
X 61.8108 42.6430 57.5110
X 61.8108 42.6430 58.2110
X 61.8108 42.6430 58.9110
X 61.8108 42.6430 59.6110
X 61.8108 42.6430 60.3110
X 61.8108 42.6430 61.0110
X 61.8108 42.6430 61.7110
X 61.8108 42.6430 62.4110
X 62.5108 42.6430 51.2110
X 62.5108 42.6430 51.9110
X 62.5108 42.6430 52.6110
X 62.5108 42.6430 53.3110
X 62.5108 42.6430 54.0110
X 62.5108 42.6430 54.7110
X 62.5108 42.6430 55.4110
X 62.5108 42.6430 56.1110
X 62.5108 42.6430 56.8110
X 62.5108 42.6430 57.5110
X 62.5108 42.6430 58.2110
X 62.5108 42.6430 58.9110
X 62.5108 42.6430 59.6110
X 62.5108 42.6430 60.3110
X 62.5108 42.6430 61.0110
X 62.5108 42.6430 61.7110
X 63.2108 42.6430 51.9110
X 63.2108 42.6430 52.6110
X 63.2108 42.6430 53.3110
X 63.2108 42.6430 54.0110
X 63.2108 42.6430 54.7110
X 63.2108 42.6430 55.4110
X 63.2108 42.6430 56.1110
X 63.2108 42.6430 56.8110
X 63.2108 42.6430 57.5110
X 63.2108 42.6430 58.2110
X 63.2108 42.6430 58.9110
X 63.2108 42.6430 59.6110
X 63.2108 42.6430 60.3110
X 63.2108 42.6430 61.0110
X 63.2108 42.6430 61.7110
X 63.9108 42.6430 52.6110
X 63.9108 42.6430 53.3110
X 63.9108 42.6430 54.0110
X 63.9108 42.6430 54.7110
X 63.9108 42.6430 55.4110
X 63.9108 42.6430 56.1110
X 63.9108 42.6430 56.8110
X 63.9108 42.6430 57.5110
X 63.9108 42.6430 58.2110
X 63.9108 42.6430 58.9110
X 63.9108 42.6430 59.6110
X 63.9108 42.6430 60.3110
X 63.9108 42.6430 61.0110
X 64.6108 42.6430 53.3110
X 64.6108 42.6430 54.0110
X 64.6108 42.6430 54.7110
X 64.6108 42.6430 55.4110
X 64.6108 42.6430 56.1110
X 64.6108 42.6430 56.8110
X 64.6108 42.6430 57.5110
X 64.6108 42.6430 58.2110
X 64.6108 42.6430 58.9110
X 64.6108 42.6430 59.6110
X 64.6108 42.6430 60.3110
X 65.3108 42.6430 54.7110
X 65.3108 42.6430 55.4110
X 65.3108 42.6430 56.1110
X 65.3108 42.6430 56.8110
X 65.3108 42.6430 57.5110
X 65.3108 42.6430 58.2110
X 65.3108 42.6430 58.9110
X 52.0108 43.3430 56.1110
X 52.0108 43.3430 56.8110
X 52.0108 43.3430 57.5110
X 52.0108 43.3430 58.2110
X 52.7108 43.3430 54.7110
X 52.7108 43.3430 55.4110
X 52.7108 43.3430 56.1110
X 52.7108 43.3430 56.8110
X 52.7108 43.3430 57.5110
X 52.7108 43.3430 58.2110
X 52.7108 43.3430 58.9110
X 52.7108 43.3430 59.6110
X 53.4108 43.3430 54.0110
X 53.4108 43.3430 54.7110
X 53.4108 43.3430 55.4110
X 53.4108 43.3430 56.1110
X 53.4108 43.3430 56.8110
X 53.4108 43.3430 57.5110
X 53.4108 43.3430 58.2110
X 53.4108 43.3430 58.9110
X 53.4108 43.3430 59.6110
X 53.4108 43.3430 60.3110
X 54.1108 43.3430 52.6110
X 54.1108 43.3430 53.3110
X 54.1108 43.3430 54.0110
X 54.1108 43.3430 54.7110
X 54.1108 43.3430 55.4110
X 54.1108 43.3430 56.1110
X 54.1108 43.3430 56.8110
X 54.1108 43.3430 57.5110
X 54.1108 43.3430 58.2110
X 54.1108 43.3430 58.9110
X 54.1108 43.3430 59.6110
X 54.1108 43.3430 60.3110
X 54.1108 43.3430 61.0110
X 54.8108 43.3430 51.9110
X 54.8108 43.3430 52.6110
X 54.8108 43.3430 53.3110
X 54.8108 43.3430 54.0110
X 54.8108 43.3430 54.7110
X 54.8108 43.3430 55.4110
X 54.8108 43.3430 56.1110
X 54.8108 43.3430 56.8110
X 54.8108 43.3430 57.5110
X 54.8108 43.3430 58.2110
X 54.8108 43.3430 58.9110
X 54.8108 43.3430 59.6110
X 54.8108 43.3430 60.3110
X 54.8108 43.3430 61.0110
X 55.5108 43.3430 51.9110
X 55.5108 43.3430 52.6110
X 55.5108 43.3430 53.3110
X 55.5108 43.3430 54.0110
X 55.5108 43.3430 54.7110
X 55.5108 43.3430 55.4110
X 55.5108 43.3430 56.1110
X 55.5108 43.3430 56.8110
X 55.5108 43.3430 57.5110
X 55.5108 43.3430 58.2110
X 55.5108 43.3430 58.9110
X 55.5108 43.3430 59.6110
X 55.5108 43.3430 60.3110
X 55.5108 43.3430 61.0110
X 55.5108 43.3430 61.7110
X 56.2108 43.3430 51.2110
X 56.2108 43.3430 51.9110
X 56.2108 43.3430 52.6110
X 56.2108 43.3430 53.3110
X 56.2108 43.3430 54.0110
X 56.2108 43.3430 54.7110
X 56.2108 43.3430 55.4110
X 56.2108 43.3430 56.1110
X 56.2108 43.3430 56.8110
X 56.2108 43.3430 57.5110
X 56.2108 43.3430 58.2110
X 56.2108 43.3430 58.9110
X 56.2108 43.3430 59.6110
X 56.2108 43.3430 60.3110
X 56.2108 43.3430 61.0110
X 56.2108 43.3430 61.7110
X 56.9108 43.3430 51.2110
X 56.9108 43.3430 51.9110
X 56.9108 43.3430 52.6110
X 56.9108 43.3430 53.3110
X 56.9108 43.3430 54.0110
X 56.9108 43.3430 54.7110
X 56.9108 43.3430 55.4110
X 56.9108 43.3430 56.1110
X 56.9108 43.3430 56.8110
X 56.9108 43.3430 57.5110
X 56.9108 43.3430 58.2110
X 56.9108 43.3430 58.9110
X 56.9108 43.3430 59.6110
X 56.9108 43.3430 60.3110
X 56.9108 43.3430 61.0110
X 56.9108 43.3430 61.7110
X 56.9108 43.3430 62.4110
X 57.6108 43.3430 50.5110
X 57.6108 43.3430 51.2110
X 57.6108 43.3430 51.9110
X 57.6108 43.3430 52.6110
X 57.6108 43.3430 53.3110
X 57.6108 43.3430 54.0110
X 57.6108 43.3430 54.7110
X 57.6108 43.3430 55.4110
X 57.6108 43.3430 56.1110
X 57.6108 43.3430 56.8110
X 57.6108 43.3430 57.5110
X 57.6108 43.3430 58.2110
X 57.6108 43.3430 58.9110
X 57.6108 43.3430 59.6110
X 57.6108 43.3430 60.3110
X 57.6108 43.3430 61.0110
X 57.6108 43.3430 61.7110
X 57.6108 43.3430 62.4110
X 58.3108 43.3430 50.5110
X 58.3108 43.3430 51.2110
X 58.3108 43.3430 51.9110
X 58.3108 43.3430 52.6110
X 58.3108 43.3430 53.3110
X 58.3108 43.3430 54.0110
X 58.3108 43.3430 54.7110
X 58.3108 43.3430 55.4110
X 58.3108 43.3430 56.1110
X 58.3108 43.3430 56.8110
X 58.3108 43.3430 57.5110
X 58.3108 43.3430 58.2110
X 58.3108 43.3430 58.9110
X 58.3108 43.3430 59.6110
X 58.3108 43.3430 60.3110
X 58.3108 43.3430 61.0110
X 58.3108 43.3430 61.7110
X 58.3108 43.3430 62.4110
X 59.0108 43.3430 50.5110
X 59.0108 43.3430 51.2110
X 59.0108 43.3430 51.9110
X 59.0108 43.3430 52.6110
X 59.0108 43.3430 53.3110
X 59.0108 43.3430 54.0110
X 59.0108 43.3430 54.7110
X 59.0108 43.3430 55.4110
X 59.0108 43.3430 56.1110
X 59.0108 43.3430 56.8110
X 59.0108 43.3430 57.5110
X 59.0108 43.3430 58.2110
X 59.0108 43.3430 58.9110
X 59.0108 43.3430 59.6110
X 59.0108 43.3430 60.3110
X 59.0108 43.3430 61.0110
X 59.0108 43.3430 61.7110
X 59.0108 43.3430 62.4110
X 59.7108 43.3430 50.5110
X 59.7108 43.3430 51.2110
X 59.7108 43.3430 51.9110
X 59.7108 43.3430 52.6110
X 59.7108 43.3430 53.3110
X 59.7108 43.3430 54.0110
X 59.7108 43.3430 54.7110
X 59.7108 43.3430 55.4110
X 59.7108 43.3430 56.1110
X 59.7108 43.3430 56.8110
X 59.7108 43.3430 57.5110
X 59.7108 43.3430 58.2110
X 59.7108 43.3430 58.9110
X 59.7108 43.3430 59.6110
X 59.7108 43.3430 60.3110
X 59.7108 43.3430 61.0110
X 59.7108 43.3430 61.7110
X 59.7108 43.3430 62.4110
X 60.4108 43.3430 51.2110
X 60.4108 43.3430 51.9110
X 60.4108 43.3430 52.6110
X 60.4108 43.3430 53.3110
X 60.4108 43.3430 54.0110
X 60.4108 43.3430 54.7110
X 60.4108 43.3430 55.4110
X 60.4108 43.3430 56.1110
X 60.4108 43.3430 56.8110
X 60.4108 43.3430 57.5110
X 60.4108 43.3430 58.2110
X 60.4108 43.3430 58.9110
X 60.4108 43.3430 59.6110
X 60.4108 43.3430 60.3110
X 60.4108 43.3430 61.0110
X 60.4108 43.3430 61.7110
X 60.4108 43.3430 62.4110
X 61.1108 43.3430 51.2110
X 61.1108 43.3430 51.9110
X 61.1108 43.3430 52.6110
X 61.1108 43.3430 53.3110
X 61.1108 43.3430 54.0110
X 61.1108 43.3430 54.7110
X 61.1108 43.3430 55.4110
X 61.1108 43.3430 56.1110
X 61.1108 43.3430 56.8110
X 61.1108 43.3430 57.5110
X 61.1108 43.3430 58.2110
X 61.1108 43.3430 58.9110
X 61.1108 43.3430 59.6110
X 61.1108 43.3430 60.3110
X 61.1108 43.3430 61.0110
X 61.1108 43.3430 61.7110
X 61.8108 43.3430 51.2110
X 61.8108 43.3430 51.9110
X 61.8108 43.3430 52.6110
X 61.8108 43.3430 53.3110
X 61.8108 43.3430 54.0110
X 61.8108 43.3430 54.7110
X 61.8108 43.3430 55.4110
X 61.8108 43.3430 56.1110
X 61.8108 43.3430 56.8110
X 61.8108 43.3430 57.5110
X 61.8108 43.3430 58.2110
X 61.8108 43.3430 58.9110
X 61.8108 43.3430 59.6110
X 61.8108 43.3430 60.3110
X 61.8108 43.3430 61.0110
X 61.8108 43.3430 61.7110
X 62.5108 43.3430 51.9110
X 62.5108 43.3430 52.6110
X 62.5108 43.3430 53.3110
X 62.5108 43.3430 54.0110
X 62.5108 43.3430 54.7110
X 62.5108 43.3430 55.4110
X 62.5108 43.3430 56.1110
X 62.5108 43.3430 56.8110
X 62.5108 43.3430 57.5110
X 62.5108 43.3430 58.2110
X 62.5108 43.3430 58.9110
X 62.5108 43.3430 59.6110
X 62.5108 43.3430 60.3110
X 62.5108 43.3430 61.0110
X 63.2108 43.3430 52.6110
X 63.2108 43.3430 53.3110
X 63.2108 43.3430 54.0110
X 63.2108 43.3430 54.7110
X 63.2108 43.3430 55.4110
X 63.2108 43.3430 56.1110
X 63.2108 43.3430 56.8110
X 63.2108 43.3430 57.5110
X 63.2108 43.3430 58.2110
X 63.2108 43.3430 58.9110
X 63.2108 43.3430 59.6110
X 63.2108 43.3430 60.3110
X 63.9108 43.3430 53.3110
X 63.9108 43.3430 54.0110
X 63.9108 43.3430 54.7110
X 63.9108 43.3430 55.4110
X 63.9108 43.3430 56.1110
X 63.9108 43.3430 56.8110
X 63.9108 43.3430 57.5110
X 63.9108 43.3430 58.2110
X 63.9108 43.3430 58.9110
X 63.9108 43.3430 59.6110
X 64.6108 43.3430 54.7110
X 64.6108 43.3430 55.4110
X 64.6108 43.3430 56.1110
X 64.6108 43.3430 56.8110
X 64.6108 43.3430 57.5110
X 64.6108 43.3430 58.2110
X 53.4108 44.0430 56.1110
X 53.4108 44.0430 56.8110
X 53.4108 44.0430 57.5110
X 53.4108 44.0430 58.2110
X 54.1108 44.0430 54.0110
X 54.1108 44.0430 54.7110
X 54.1108 44.0430 55.4110
X 54.1108 44.0430 56.1110
X 54.1108 44.0430 56.8110
X 54.1108 44.0430 57.5110
X 54.1108 44.0430 58.2110
X 54.1108 44.0430 58.9110
X 54.8108 44.0430 53.3110
X 54.8108 44.0430 54.0110
X 54.8108 44.0430 54.7110
X 54.8108 44.0430 55.4110
X 54.8108 44.0430 56.1110
X 54.8108 44.0430 56.8110
X 54.8108 44.0430 57.5110
X 54.8108 44.0430 58.2110
X 54.8108 44.0430 58.9110
X 54.8108 44.0430 59.6110
X 55.5108 44.0430 52.6110
X 55.5108 44.0430 53.3110
X 55.5108 44.0430 54.0110
X 55.5108 44.0430 54.7110
X 55.5108 44.0430 55.4110
X 55.5108 44.0430 56.1110
X 55.5108 44.0430 56.8110
X 55.5108 44.0430 57.5110
X 55.5108 44.0430 58.2110
X 55.5108 44.0430 58.9110
X 55.5108 44.0430 59.6110
X 55.5108 44.0430 60.3110
X 56.2108 44.0430 51.9110
X 56.2108 44.0430 52.6110
X 56.2108 44.0430 53.3110
X 56.2108 44.0430 54.0110
X 56.2108 44.0430 54.7110
X 56.2108 44.0430 55.4110
X 56.2108 44.0430 56.1110
X 56.2108 44.0430 56.8110
X 56.2108 44.0430 57.5110
X 56.2108 44.0430 58.2110
X 56.2108 44.0430 58.9110
X 56.2108 44.0430 59.6110
X 56.2108 44.0430 60.3110
X 56.2108 44.0430 61.0110
X 56.9108 44.0430 51.9110
X 56.9108 44.0430 52.6110
X 56.9108 44.0430 53.3110
X 56.9108 44.0430 54.0110
X 56.9108 44.0430 54.7110
X 56.9108 44.0430 55.4110
X 56.9108 44.0430 56.1110
X 56.9108 44.0430 56.8110
X 56.9108 44.0430 57.5110
X 56.9108 44.0430 58.2110
X 56.9108 44.0430 58.9110
X 56.9108 44.0430 59.6110
X 56.9108 44.0430 60.3110
X 56.9108 44.0430 61.0110
X 57.6108 44.0430 51.9110
X 57.6108 44.0430 52.6110
X 57.6108 44.0430 53.3110
X 57.6108 44.0430 54.0110
X 57.6108 44.0430 54.7110
X 57.6108 44.0430 55.4110
X 57.6108 44.0430 56.1110
X 57.6108 44.0430 56.8110
X 57.6108 44.0430 57.5110
X 57.6108 44.0430 58.2110
X 57.6108 44.0430 58.9110
X 57.6108 44.0430 59.6110
X 57.6108 44.0430 60.3110
X 57.6108 44.0430 61.0110
X 57.6108 44.0430 61.7110
X 58.3108 44.0430 51.9110
X 58.3108 44.0430 52.6110
X 58.3108 44.0430 53.3110
X 58.3108 44.0430 54.0110
X 58.3108 44.0430 54.7110
X 58.3108 44.0430 55.4110
X 58.3108 44.0430 56.1110
X 58.3108 44.0430 56.8110
X 58.3108 44.0430 57.5110
X 58.3108 44.0430 58.2110
X 58.3108 44.0430 58.9110
X 58.3108 44.0430 59.6110
X 58.3108 44.0430 60.3110
X 58.3108 44.0430 61.0110
X 58.3108 44.0430 61.7110
X 59.0108 44.0430 51.9110
X 59.0108 44.0430 52.6110
X 59.0108 44.0430 53.3110
X 59.0108 44.0430 54.0110
X 59.0108 44.0430 54.7110
X 59.0108 44.0430 55.4110
X 59.0108 44.0430 56.1110
X 59.0108 44.0430 56.8110
X 59.0108 44.0430 57.5110
X 59.0108 44.0430 58.2110
X 59.0108 44.0430 58.9110
X 59.0108 44.0430 59.6110
X 59.0108 44.0430 60.3110
X 59.0108 44.0430 61.0110
X 59.0108 44.0430 61.7110
X 59.7108 44.0430 51.9110
X 59.7108 44.0430 52.6110
X 59.7108 44.0430 53.3110
X 59.7108 44.0430 54.0110
X 59.7108 44.0430 54.7110
X 59.7108 44.0430 55.4110
X 59.7108 44.0430 56.1110
X 59.7108 44.0430 56.8110
X 59.7108 44.0430 57.5110
X 59.7108 44.0430 58.2110
X 59.7108 44.0430 58.9110
X 59.7108 44.0430 59.6110
X 59.7108 44.0430 60.3110
X 59.7108 44.0430 61.0110
X 59.7108 44.0430 61.7110
X 60.4108 44.0430 51.9110
X 60.4108 44.0430 52.6110
X 60.4108 44.0430 53.3110
X 60.4108 44.0430 54.0110
X 60.4108 44.0430 54.7110
X 60.4108 44.0430 55.4110
X 60.4108 44.0430 56.1110
X 60.4108 44.0430 56.8110
X 60.4108 44.0430 57.5110
X 60.4108 44.0430 58.2110
X 60.4108 44.0430 58.9110
X 60.4108 44.0430 59.6110
X 60.4108 44.0430 60.3110
X 60.4108 44.0430 61.0110
X 61.1108 44.0430 51.9110
X 61.1108 44.0430 52.6110
X 61.1108 44.0430 53.3110
X 61.1108 44.0430 54.0110
X 61.1108 44.0430 54.7110
X 61.1108 44.0430 55.4110
X 61.1108 44.0430 56.1110
X 61.1108 44.0430 56.8110
X 61.1108 44.0430 57.5110
X 61.1108 44.0430 58.2110
X 61.1108 44.0430 58.9110
X 61.1108 44.0430 59.6110
X 61.1108 44.0430 60.3110
X 61.1108 44.0430 61.0110
X 61.8108 44.0430 52.6110
X 61.8108 44.0430 53.3110
X 61.8108 44.0430 54.0110
X 61.8108 44.0430 54.7110
X 61.8108 44.0430 55.4110
X 61.8108 44.0430 56.1110
X 61.8108 44.0430 56.8110
X 61.8108 44.0430 57.5110
X 61.8108 44.0430 58.2110
X 61.8108 44.0430 58.9110
X 61.8108 44.0430 59.6110
X 61.8108 44.0430 60.3110
X 61.8108 44.0430 61.0110
X 62.5108 44.0430 53.3110
X 62.5108 44.0430 54.0110
X 62.5108 44.0430 54.7110
X 62.5108 44.0430 55.4110
X 62.5108 44.0430 56.1110
X 62.5108 44.0430 56.8110
X 62.5108 44.0430 57.5110
X 62.5108 44.0430 58.2110
X 62.5108 44.0430 58.9110
X 62.5108 44.0430 59.6110
X 62.5108 44.0430 60.3110
X 63.2108 44.0430 54.0110
X 63.2108 44.0430 54.7110
X 63.2108 44.0430 55.4110
X 63.2108 44.0430 56.1110
X 63.2108 44.0430 56.8110
X 63.2108 44.0430 57.5110
X 63.2108 44.0430 58.2110
X 63.2108 44.0430 58.9110
X 63.2108 44.0430 59.6110
X 63.9108 44.0430 55.4110
X 63.9108 44.0430 56.1110
X 63.9108 44.0430 56.8110
X 63.9108 44.0430 57.5110
X 63.9108 44.0430 58.2110
X 54.8108 44.7430 55.4110
X 54.8108 44.7430 56.1110
X 54.8108 44.7430 56.8110
X 54.8108 44.7430 57.5110
X 55.5108 44.7430 54.0110
X 55.5108 44.7430 54.7110
X 55.5108 44.7430 55.4110
X 55.5108 44.7430 56.1110
X 55.5108 44.7430 56.8110
X 55.5108 44.7430 57.5110
X 55.5108 44.7430 58.2110
X 55.5108 44.7430 58.9110
X 56.2108 44.7430 53.3110
X 56.2108 44.7430 54.0110
X 56.2108 44.7430 54.7110
X 56.2108 44.7430 55.4110
X 56.2108 44.7430 56.1110
X 56.2108 44.7430 56.8110
X 56.2108 44.7430 57.5110
X 56.2108 44.7430 58.2110
X 56.2108 44.7430 58.9110
X 56.2108 44.7430 59.6110
X 56.9108 44.7430 53.3110
X 56.9108 44.7430 54.0110
X 56.9108 44.7430 54.7110
X 56.9108 44.7430 55.4110
X 56.9108 44.7430 56.1110
X 56.9108 44.7430 56.8110
X 56.9108 44.7430 57.5110
X 56.9108 44.7430 58.2110
X 56.9108 44.7430 58.9110
X 56.9108 44.7430 59.6110
X 56.9108 44.7430 60.3110
X 57.6108 44.7430 52.6110
X 57.6108 44.7430 53.3110
X 57.6108 44.7430 54.0110
X 57.6108 44.7430 54.7110
X 57.6108 44.7430 55.4110
X 57.6108 44.7430 56.1110
X 57.6108 44.7430 56.8110
X 57.6108 44.7430 57.5110
X 57.6108 44.7430 58.2110
X 57.6108 44.7430 58.9110
X 57.6108 44.7430 59.6110
X 57.6108 44.7430 60.3110
X 58.3108 44.7430 52.6110
X 58.3108 44.7430 53.3110
X 58.3108 44.7430 54.0110
X 58.3108 44.7430 54.7110
X 58.3108 44.7430 55.4110
X 58.3108 44.7430 56.1110
X 58.3108 44.7430 56.8110
X 58.3108 44.7430 57.5110
X 58.3108 44.7430 58.2110
X 58.3108 44.7430 58.9110
X 58.3108 44.7430 59.6110
X 58.3108 44.7430 60.3110
X 59.0108 44.7430 52.6110
X 59.0108 44.7430 53.3110
X 59.0108 44.7430 54.0110
X 59.0108 44.7430 54.7110
X 59.0108 44.7430 55.4110
X 59.0108 44.7430 56.1110
X 59.0108 44.7430 56.8110
X 59.0108 44.7430 57.5110
X 59.0108 44.7430 58.2110
X 59.0108 44.7430 58.9110
X 59.0108 44.7430 59.6110
X 59.0108 44.7430 60.3110
X 59.7108 44.7430 52.6110
X 59.7108 44.7430 53.3110
X 59.7108 44.7430 54.0110
X 59.7108 44.7430 54.7110
X 59.7108 44.7430 55.4110
X 59.7108 44.7430 56.1110
X 59.7108 44.7430 56.8110
X 59.7108 44.7430 57.5110
X 59.7108 44.7430 58.2110
X 59.7108 44.7430 58.9110
X 59.7108 44.7430 59.6110
X 59.7108 44.7430 60.3110
X 60.4108 44.7430 53.3110
X 60.4108 44.7430 54.0110
X 60.4108 44.7430 54.7110
X 60.4108 44.7430 55.4110
X 60.4108 44.7430 56.1110
X 60.4108 44.7430 56.8110
X 60.4108 44.7430 57.5110
X 60.4108 44.7430 58.2110
X 60.4108 44.7430 58.9110
X 60.4108 44.7430 59.6110
X 60.4108 44.7430 60.3110
X 61.1108 44.7430 53.3110
X 61.1108 44.7430 54.0110
X 61.1108 44.7430 54.7110
X 61.1108 44.7430 55.4110
X 61.1108 44.7430 56.1110
X 61.1108 44.7430 56.8110
X 61.1108 44.7430 57.5110
X 61.1108 44.7430 58.2110
X 61.1108 44.7430 58.9110
X 61.1108 44.7430 59.6110
X 61.8108 44.7430 54.0110
X 61.8108 44.7430 54.7110
X 61.8108 44.7430 55.4110
X 61.8108 44.7430 56.1110
X 61.8108 44.7430 56.8110
X 61.8108 44.7430 57.5110
X 61.8108 44.7430 58.2110
X 61.8108 44.7430 58.9110
X 61.8108 44.7430 59.6110
X 62.5108 44.7430 54.7110
X 62.5108 44.7430 55.4110
X 62.5108 44.7430 56.1110
X 62.5108 44.7430 56.8110
X 62.5108 44.7430 57.5110
X 62.5108 44.7430 58.2110
X 56.9108 45.4430 55.4110
X 56.9108 45.4430 56.1110
X 56.9108 45.4430 56.8110
X 56.9108 45.4430 57.5110
X 56.9108 45.4430 58.2110
X 57.6108 45.4430 54.7110
X 57.6108 45.4430 55.4110
X 57.6108 45.4430 56.1110
X 57.6108 45.4430 56.8110
X 57.6108 45.4430 57.5110
X 57.6108 45.4430 58.2110
X 58.3108 45.4430 54.7110
X 58.3108 45.4430 55.4110
X 58.3108 45.4430 56.1110
X 58.3108 45.4430 56.8110
X 58.3108 45.4430 57.5110
X 58.3108 45.4430 58.2110
X 58.3108 45.4430 58.9110
X 59.0108 45.4430 54.7110
X 59.0108 45.4430 55.4110
X 59.0108 45.4430 56.1110
X 59.0108 45.4430 56.8110
X 59.0108 45.4430 57.5110
X 59.0108 45.4430 58.2110
X 59.0108 45.4430 58.9110
X 59.7108 45.4430 54.7110
X 59.7108 45.4430 55.4110
X 59.7108 45.4430 56.1110
X 59.7108 45.4430 56.8110
X 59.7108 45.4430 57.5110
X 59.7108 45.4430 58.2110
X 59.7108 45.4430 58.9110
X 60.4108 45.4430 54.7110
X 60.4108 45.4430 55.4110
X 60.4108 45.4430 56.1110
X 60.4108 45.4430 56.8110
X 60.4108 45.4430 57.5110
X 60.4108 45.4430 58.2110
X 61.1108 45.4430 56.1110
X 61.1108 45.4430 56.8110
X 61.1108 45.4430 57.5110
