88
shell7p4 K=10 +-1 net-free proxy+9.01
C     60.11193800    34.38396900    57.21013200
H     60.60719900    33.42993900    57.38460900
H     60.72469300    35.27181800    57.05919300
C     58.78057700    34.50353200    57.15195800
C     58.09218200    35.83426100    56.89335400
O     58.81246700    36.81821800    56.57878900
O     56.83954900    35.84891700    57.00961700
O     57.93461500    33.42640300    57.34599800
C     57.67693600    32.53773200    56.20080600
H     57.01901700    31.76376900    56.62407200
C     58.98648700    31.96184000    55.79317200
H     59.46393000    31.24298300    56.46049600
C     59.68310500    32.48267100    54.76815100
C     59.06432100    33.48370900    53.89317900
H     59.70236100    33.90454400    53.11096900
C     57.78125300    33.86565900    54.03153300
H     57.33218100    34.60235400    53.35662900
C     56.88979900    33.27109300    55.08618200
H     56.34719000    34.09064800    55.58588000
O     55.96286300    32.39770700    54.43466800
H     55.31084500    32.10952700    55.09277000
C     61.12320000    32.06212600    54.53420800
O     61.78496200    31.70232800    55.54338100
O     61.54107100    32.10651300    53.35273800
C     58.830000    23.919500    51.082400
O     60.013825    23.981276    50.685863
O     58.118716    22.892117    51.114959
H     58.372021    24.855350    51.435161
C     57.415700    41.195900    64.228200
N     57.566277    41.581120    62.964146
H     57.255760    42.243622    63.660400
H     57.762446    40.626082    63.227813
N     57.006801    42.068304    65.145049
H     57.202970    41.113266    65.408716
H     57.121149    42.360840    64.185128
N     57.674021    39.938276    64.575405
H     57.788370    40.230811    63.615484
H     57.363504    40.600778    65.271659
C     51.133900    26.976600    61.052500
N     51.284477    27.361820    59.788446
H     50.973960    28.024322    60.484700
H     51.480646    26.406782    60.052113
N     50.725001    27.849004    61.969349
H     50.921170    26.893966    62.233016
H     50.839349    28.141540    61.009428
N     51.392221    25.718976    61.399705
H     51.506570    26.011511    60.439784
H     51.081704    26.381478    62.095959
C     64.006800    27.233500    46.301300
O     65.190625    27.295276    45.904763
O     63.295516    26.206117    46.333859
H     63.548821    28.169350    46.654061
C     66.822900    35.141900    46.840100
O     68.006725    35.203676    46.443563
O     66.111616    34.114517    46.872659
H     66.364921    36.077750    47.192861
C     60.204100    35.548300    44.686500
O     61.387925    35.610076    44.289963
O     59.492816    34.520917    44.719059
H     59.746121    36.484150    45.039261
C     55.078800    28.915100    64.680500
N     55.229377    29.300320    63.416446
H     54.918860    29.962822    64.112700
H     55.425546    28.345282    63.680113
N     54.669901    29.787504    65.597349
H     54.866070    28.832466    65.861016
H     54.784249    30.080040    64.637428
N     55.337121    27.657476    65.027705
H     55.451470    27.950011    64.067784
H     55.026604    28.319978    65.723959
C     68.607500    29.717100    48.466800
O     69.791325    29.778876    48.070263
O     67.896216    28.689717    48.499359
H     68.149521    30.652950    48.819561
C     53.305400    38.594800    64.723500
N     53.455977    38.980020    63.459446
H     53.145460    39.642522    64.155700
H     53.652146    38.024982    63.723113
N     52.896501    39.467204    65.640349
H     53.092670    38.512166    65.904016
H     53.010849    39.759740    64.680428
N     53.563721    37.337176    65.070705
H     53.678070    37.629711    64.110784
H     53.253204    37.999678    65.766959
C     65.015200    24.314800    50.754600
O     66.199025    24.376576    50.358063
O     64.303916    23.287417    50.787159
H     64.557221    25.250650    51.107361
