88
K10_aforce mu100 surrsized
C     60.111938    34.383969    57.210132
H     60.607199    33.429939    57.384609
H     60.724693    35.271818    57.059193
C     58.780577    34.503532    57.151958
C     58.092182    35.834261    56.893354
O     58.812467    36.818218    56.578789
O     56.839549    35.848917    57.009617
O     57.934615    33.426403    57.345998
C     57.676936    32.537732    56.200806
H     57.019017    31.763769    56.624072
C     58.986487    31.961840    55.793172
H     59.463930    31.242983    56.460496
C     59.683105    32.482671    54.768151
C     59.064321    33.483709    53.893179
H     59.702361    33.904544    53.110969
C     57.781253    33.865659    54.031533
H     57.332181    34.602354    53.356629
C     56.889799    33.271093    55.086182
H     56.347190    34.090648    55.585880
O     55.962863    32.397707    54.434668
H     55.310845    32.109527    55.092770
C     61.123200    32.062126    54.534208
O     61.784962    31.702328    55.543381
O     61.541071    32.106513    53.352738
C     61.346900    37.082000    59.617400
N     61.497477    37.467220    58.353346
H     61.186960    38.129722    59.049600
H     61.693646    36.512182    58.617013
N     60.938001    37.954404    60.534249
H     61.134170    36.999366    60.797916
H     61.052349    38.246940    59.574328
N     61.605221    35.824376    59.964605
H     61.719570    36.116911    59.004684
H     61.294704    36.486878    60.660859
C     54.334500    28.698500    60.134800
N     54.485077    29.083720    58.870746
H     54.174560    29.746222    59.567000
H     54.681246    28.128682    59.134413
N     53.925601    29.570904    61.051649
H     54.121770    28.615866    61.315316
H     54.039949    29.863440    60.091728
N     54.592821    27.440876    60.482005
H     54.707170    27.733411    59.522084
H     54.282304    28.103378    61.178259
C     57.805400    32.048900    50.673800
O     58.989225    32.110676    50.277263
O     57.094116    31.021517    50.706359
H     57.347421    32.984750    51.026561
C     62.965800    34.023000    50.772500
O     64.149625    34.084776    50.375963
O     62.254516    32.995617    50.805059
H     62.507821    34.958850    51.125261
C     65.740100    30.159600    50.347600
O     66.923925    30.221376    49.951063
O     65.028816    29.132217    50.380159
H     65.282121    31.095450    50.700361
C     62.387200    28.696800    53.617200
O     63.571025    28.758576    53.220663
O     61.675916    27.669417    53.649759
H     61.929221    29.632650    53.969961
C     55.337900    33.734700    59.831800
N     55.488477    34.119920    58.567746
H     55.177960    34.782422    59.264000
H     55.684646    33.164882    58.831413
N     54.929001    34.607104    60.748649
H     55.125170    33.652066    61.012316
H     55.043349    34.899640    59.788728
N     55.596221    32.477076    60.179005
H     55.710570    32.769611    59.219084
H     55.285704    33.139578    60.875259
C     59.644300    31.497300    60.261900
N     59.794877    31.882520    58.997846
H     59.484360    32.545022    59.694100
H     59.991046    30.927482    59.261513
N     59.235401    32.369704    61.178749
H     59.431570    31.414666    61.442416
H     59.349749    32.662240    60.218828
N     59.902621    30.239676    60.609105
H     60.016970    30.532211    59.649184
H     59.592104    30.902178    61.305359
C     64.958800    33.223900    55.782200
O     66.142625    33.285676    55.385663
O     64.247516    32.196517    55.814759
H     64.500821    34.159750    56.134961
C     60.809500    28.668200    49.100600
O     61.993325    28.729976    48.704063
O     60.098216    27.640817    49.133159
H     60.351521    29.604050    49.453361