88
-2 1 -840.1053579853968
C       59.01150001    35.95457785    59.90839954
H       58.50585684    36.79024865    59.25358833
H       59.97427067    36.44567447    59.85197102
C       58.05616038    34.88542598    60.35995558
C       57.57541933    34.66506604    61.73293572
O       56.84502274    33.53223322    62.12181571
O       57.71923576    35.53089702    62.67728548
O       57.90827739    33.56622550    59.45690797
C       59.93167219    31.19812263    53.02644685
H       59.57293051    32.01188022    53.65432139
C       61.10829801    31.31489906    52.33853078
H       61.73815741    32.23666777    52.19064470
C       61.50064884    30.20336376    51.49866805
C       60.67848085    29.04932076    51.62147527
H       61.19887132    28.11686607    52.11902368
C       59.25458005    29.28328570    51.46903560
H       58.63173026    28.38380661    51.42884661
C       58.97459773    30.20738492    52.59361270
H       58.97547793    30.04242882    50.61515786
O       57.76126750    30.30774647    53.01897795
H       57.19059611    30.26873226    52.16986672
C       62.82154567    30.42445644    50.86748341
O       63.68336462    31.04706475    51.52746478
O       63.19322095    30.86811183    49.77208711
C       61.34690000    37.08200000    59.61740000
N       61.49747700    37.46722000    58.35334600
H       61.18696000    38.12972200    59.04960000
H       61.69364600    36.51218200    58.61701300
N       60.93800100    37.95440400    60.53424900
H       61.13417000    36.99936600    60.79791600
H       61.05234900    38.24694000    59.57432800
N       61.60522100    35.82437600    59.96460500
H       61.71957000    36.11691100    59.00468400
H       61.29470400    36.48687800    60.66085900
C       54.33450000    28.69850000    60.13480000
N       54.48507700    29.08372000    58.87074600
H       54.17456000    29.74622200    59.56700000
H       54.68124600    28.12868200    59.13441300
N       53.92560100    29.57090400    61.05164900
H       54.12177000    28.61586600    61.31531600
H       54.03994900    29.86344000    60.09172800
N       54.59282100    27.44087600    60.48200500
H       54.70717000    27.73341100    59.52208400
H       54.28230400    28.10337800    61.17825900
C       57.80540000    32.04890000    50.67380000
O       58.98922500    32.11067600    50.27726300
O       57.09411600    31.02151700    50.70635900
H       57.34742100    32.98475000    51.02656100
C       62.96580000    34.02300000    50.77250000
O       64.14962500    34.08477600    50.37596300
O       62.25451600    32.99561700    50.80505900
H       62.50782100    34.95885000    51.12526100
C       65.74010000    30.15960000    50.34760000
O       66.92392500    30.22137600    49.95106300
O       65.02881600    29.13221700    50.38015900
H       65.28212100    31.09545000    50.70036100
C       62.38720000    28.69680000    53.61720000
O       63.57102500    28.75857600    53.22066300
O       61.67591600    27.66941700    53.64975900
H       61.92922100    29.63265000    53.96996100
C       55.33790000    33.73470000    59.83180000
N       55.48847700    34.11992000    58.56774600
H       55.17796000    34.78242200    59.26400000
H       55.68464600    33.16488200    58.83141300
N       54.92900100    34.60710400    60.74864900
H       55.12517000    33.65206600    61.01231600
H       55.04334900    34.89964000    59.78872800
N       55.59622100    32.47707600    60.17900500
H       55.71057000    32.76961100    59.21908400
H       55.28570400    33.13957800    60.87525900
C       59.64430000    31.49730000    60.26190000
N       59.79487700    31.88252000    58.99784600
H       59.48436000    32.54502200    59.69410000
H       59.99104600    30.92748200    59.26151300
N       59.23540100    32.36970400    61.17874900
H       59.43157000    31.41466600    61.44241600
H       59.34974900    32.66224000    60.21882800
N       59.90262100    30.23967600    60.60910500
H       60.01697000    30.53221100    59.64918400
H       59.59210400    30.90217800    61.30535900
C       64.95880000    33.22390000    55.78220000
O       66.14262500    33.28567600    55.38566300
O       64.24751600    32.19651700    55.81475900
H       64.50082100    34.15975000    56.13496100
C       60.80950000    28.66820000    49.10060000
O       61.99332500    28.72997600    48.70406300
O       60.09821600    27.64081700    49.13315900
H       60.35152100    29.60405000    49.45336100
