66
-2 1 -839.2675045126746
C       58.56564070    36.26750899    58.98862350
H       58.47844059    36.21605510    57.89768507
H       58.59388285    37.25841163    59.46155061
C       58.40952813    35.15608064    59.77796167
C       58.49201805    35.32180955    61.30696157
O       59.49851084    35.92666695    61.77249680
O       57.55482815    34.77472997    61.94061167
O       58.17313756    33.93366987    59.37322534
C       60.53957664    32.56997501    54.02648208
H       59.61062832    32.71076742    53.47073315
C       60.77241750    33.15743623    55.23567073
H       59.99303071    33.80075413    55.66683336
C       61.98699141    32.96447583    56.00798193
C       62.96757134    32.16079140    55.41895831
H       63.90897711    31.96222649    55.94133932
C       62.83785696    31.58437585    54.08347321
H       63.31570201    30.53585274    53.83573124
C       61.58352465    31.80802373    53.35650904
H       63.67785659    31.76555206    53.26845427
O       61.35135530    31.45012196    52.16951531
H       62.18901734    31.16927890    51.62986530
C       62.03587968    33.62958901    57.38804486
O       61.61164102    34.85569668    57.50214433
O       62.40441326    32.98494206    58.40756887
C       61.34690000    37.08200000    59.61740000
N       61.49747700    37.46722000    58.35334600
H       61.18696000    38.12972200    59.04960000
H       61.69364600    36.51218200    58.61701300
N       60.93800100    37.95440400    60.53424900
H       61.13417000    36.99936600    60.79791600
H       61.05234900    38.24694000    59.57432800
N       61.60522100    35.82437600    59.96460500
H       61.71957000    36.11691100    59.00468400
H       61.29470400    36.48687800    60.66085900
C       59.04380000    30.76110000    49.83820000
O       60.22762500    30.82287600    49.44166300
O       58.33251600    29.73371700    49.87075900
H       58.58582100    31.69695000    50.19096100
C       62.38720000    28.69680000    53.61720000
O       63.57102500    28.75857600    53.22066300
O       61.67591600    27.66941700    53.64975900
H       61.92922100    29.63265000    53.96996100
C       64.47490000    32.89690000    51.58640000
O       65.65872500    32.95867600    51.18986300
O       63.76361600    31.86951700    51.61895900
H       64.01692100    33.83275000    51.93916100
C       55.33790000    33.73470000    59.83180000
N       55.48847700    34.11992000    58.56774600
H       55.17796000    34.78242200    59.26400000
H       55.68464600    33.16488200    58.83141300
N       54.92900100    34.60710400    60.74864900
H       55.12517000    33.65206600    61.01231600
H       55.04334900    34.89964000    59.78872800
N       55.59622100    32.47707600    60.17900500
H       55.71057000    32.76961100    59.21908400
H       55.28570400    33.13957800    60.87525900
C       59.64430000    31.49730000    60.26190000
N       59.79487700    31.88252000    58.99784600
H       59.48436000    32.54502200    59.69410000
H       59.99104600    30.92748200    59.26151300
N       59.23540100    32.36970400    61.17874900
H       59.43157000    31.41466600    61.44241600
H       59.34974900    32.66224000    60.21882800
N       59.90262100    30.23967600    60.60910500
H       60.01697000    30.53221100    59.64918400
H       59.59210400    30.90217800    61.30535900
