82
-2 1 -838.1908246126336
C       55.66189013    31.47736664    61.78258539
H       54.83195031    31.88782346    61.18316587
H       55.66559240    30.39636031    61.52993486
C       55.34331519    31.51247097    63.22714428
C       56.36588427    32.10681237    64.19730668
O       56.20594186    33.40239690    64.17853877
O       56.30013468    31.52795621    65.44676395
O       54.27207061    31.03840979    63.71872545
C       57.46776240    31.97695438    58.85505098
H       57.79608773    31.40726635    57.97899201
C       57.47609496    31.41230284    60.06629986
H       57.81656748    30.37818734    60.18013708
C       57.01438728    32.11292672    61.33656644
C       56.85222908    33.61195415    61.10878219
H       56.71258869    34.22020669    62.00410527
C       56.85531812    34.15854053    59.88860357
H       56.73320436    35.23961797    59.76762711
C       57.02302866    33.39024014    58.60074162
H       56.02574426    33.33806141    58.11807089
O       57.83730201    34.08857433    57.69327150
H       58.76981589    33.85825757    57.82903401
C       58.10347262    31.91530988    62.40923167
O       57.69568401    31.64333036    63.69381885
O       59.28269224    31.94931261    62.19876496
C       58.05930000    32.81320000    67.34890000
N       58.20987700    33.19842000    66.08484600
H       57.89936000    33.86092200    66.78110000
H       58.40604600    32.24338200    66.34851300
N       57.65040100    33.68560400    68.26574900
H       57.84657000    32.73056600    68.52941600
H       57.76474900    33.97814000    67.30582800
N       58.31762100    31.55557600    67.69610500
H       58.43197000    31.84811100    66.73618400
H       58.00710400    32.21807800    68.39235900
C       68.78550000    32.68210000    47.20600000
O       69.96932500    32.74387600    46.80946300
O       68.07421600    31.65471700    47.23855900
H       68.32752100    33.61795000    47.55876100
C       70.06330000    28.29850000    51.49350000
O       71.24712500    28.36027600    51.09696300
O       69.35201600    27.27111700    51.52605900
H       69.60532100    29.23435000    51.84626100
C       62.24210000    30.27240000    44.03830000
O       63.42592500    30.33417600    43.64176300
O       61.53081600    29.24501700    44.07085900
H       61.78412100    31.20825000    44.39106100
C       55.75480000    28.61400000    65.50240000
N       55.90537700    28.99922000    64.23834600
H       55.59486000    29.66172200    64.93460000
H       56.10154600    28.04418200    64.50201300
N       55.34590100    29.48640400    66.41924900
H       55.54207000    28.53136600    66.68291600
H       55.46024900    29.77894000    65.45932800
N       56.01312100    27.35637600    65.84960500
H       56.12747000    27.64891100    64.88968400
H       55.70260400    28.01887800    66.54585900
C       61.92210000    25.99330000    46.06640000
O       63.10592500    26.05507600    45.66986300
O       61.21081600    24.96591700    46.09895900
H       61.46412100    26.92915000    46.41916100
C       61.22010000    23.18460000    50.05310000
O       62.40392500    23.24637600    49.65656300
O       60.50881600    22.15721700    50.08565900
H       60.76212100    24.12045000    50.40586100
C       53.47810000    32.86700000    66.03510000
N       53.62867700    33.25222000    64.77104600
H       53.31816000    33.91472200    65.46730000
H       53.82484600    32.29718200    65.03471300
N       53.06920100    33.73940400    66.95194900
H       53.26537000    32.78436600    67.21561600
H       53.18354900    34.03194000    65.99202800
N       53.73642100    31.60937600    66.38230500
H       53.85077000    31.90191100    65.42238400
H       53.42590400    32.27187800    67.07855900
C       65.84890000    24.39480000    49.80490000
O       67.03272500    24.45657600    49.40836300
O       65.13761600    23.36741700    49.83745900
H       65.39092100    25.33065000    50.15766100
C       66.77620000    28.49640000    46.27060000
O       67.96002500    28.55817600    45.87406300
O       66.06491600    27.46901700    46.30315900
H       66.31822100    29.43225000    46.62336100
