82
shell8p0 TS-under-field (TS substrate + same 8A bodies)
C     60.14190600    34.25017500    56.86750500
H     60.65410400    33.35229400    57.20242100
H     60.73860600    35.07435300    56.47491200
C     58.80287300    34.45194900    57.16141800
C     58.13069700    35.79868100    56.84307300
O     58.86276300    36.77666300    56.53446600
O     56.87734100    35.82963400    56.93983700
O     58.04533200    33.51170800    57.60013500
C     57.53567900    32.20862600    56.01945400
H     56.92805500    31.57263500    56.66681400
C     58.86068700    31.87524000    55.78984900
H     59.36035100    31.12725100    56.40326400
C     59.64119800    32.67145500    54.96010600
C     58.97535300    33.57937300    54.02371700
H     59.61208400    34.05213900    53.27111900
C     57.64453400    33.77154800    54.05277400
H     57.14874400    34.42947900    53.33266900
C     56.77153500    33.13738000    55.09626400
H     56.36648800    33.96180100    55.70835200
O     55.70405500    32.44082700    54.44502300
H     55.04194600    32.20048300    55.11214300
C     61.07068900    32.21901900    54.67969600
O     61.72429900    31.71851300    55.62834500
O     61.44865900    32.31879300    53.48933100
C     58.059300    32.813200    67.348900
N     58.209877    33.198420    66.084846
H     57.899360    33.860922    66.781100
H     58.406046    32.243382    66.348513
N     57.650401    33.685604    68.265749
H     57.846570    32.730566    68.529416
H     57.764749    33.978140    67.305828
N     58.317621    31.555576    67.696105
H     58.431970    31.848111    66.736184
H     58.007104    32.218078    68.392359
C     68.785500    32.682100    47.206000
O     69.969325    32.743876    46.809463
O     68.074216    31.654717    47.238559
H     68.327521    33.617950    47.558761
C     70.063300    28.298500    51.493500
O     71.247125    28.360276    51.096963
O     69.352016    27.271117    51.526059
H     69.605321    29.234350    51.846261
C     62.242100    30.272400    44.038300
O     63.425925    30.334176    43.641763
O     61.530816    29.245017    44.070859
H     61.784121    31.208250    44.391061
C     55.754800    28.614000    65.502400
N     55.905377    28.999220    64.238346
H     55.594860    29.661722    64.934600
H     56.101546    28.044182    64.502013
N     55.345901    29.486404    66.419249
H     55.542070    28.531366    66.682916
H     55.460249    29.778940    65.459328
N     56.013121    27.356376    65.849605
H     56.127470    27.648911    64.889684
H     55.702604    28.018878    66.545859
C     61.922100    25.993300    46.066400
O     63.105925    26.055076    45.669863
O     61.210816    24.965917    46.098959
H     61.464121    26.929150    46.419161
C     61.220100    23.184600    50.053100
O     62.403925    23.246376    49.656563
O     60.508816    22.157217    50.085659
H     60.762121    24.120450    50.405861
C     53.478100    32.867000    66.035100
N     53.628677    33.252220    64.771046
H     53.318160    33.914722    65.467300
H     53.824846    32.297182    65.034713
N     53.069201    33.739404    66.951949
H     53.265370    32.784366    67.215616
H     53.183549    34.031940    65.992028
N     53.736421    31.609376    66.382305
H     53.850770    31.901911    65.422384
H     53.425904    32.271878    67.078559
C     65.848900    24.394800    49.804900
O     67.032725    24.456576    49.408363
O     65.137616    23.367417    49.837459
H     65.390921    25.330650    50.157661
C     66.776200    28.496400    46.270600
O     67.960025    28.558176    45.874063
O     66.064916    27.469017    46.303159
H     66.318221    29.432250    46.623361
