82
shell8p9 K=10 +-1 net-free proxy+9.85
C     60.11193800    34.38396900    57.21013200
H     60.60719900    33.42993900    57.38460900
H     60.72469300    35.27181800    57.05919300
C     58.78057700    34.50353200    57.15195800
C     58.09218200    35.83426100    56.89335400
O     58.81246700    36.81821800    56.57878900
O     56.83954900    35.84891700    57.00961700
O     57.93461500    33.42640300    57.34599800
C     57.67693600    32.53773200    56.20080600
H     57.01901700    31.76376900    56.62407200
C     58.98648700    31.96184000    55.79317200
H     59.46393000    31.24298300    56.46049600
C     59.68310500    32.48267100    54.76815100
C     59.06432100    33.48370900    53.89317900
H     59.70236100    33.90454400    53.11096900
C     57.78125300    33.86565900    54.03153300
H     57.33218100    34.60235400    53.35662900
C     56.88979900    33.27109300    55.08618200
H     56.34719000    34.09064800    55.58588000
O     55.96286300    32.39770700    54.43466800
H     55.31084500    32.10952700    55.09277000
C     61.12320000    32.06212600    54.53420800
O     61.78496200    31.70232800    55.54338100
O     61.54107100    32.10651300    53.35273800
C     52.093400    30.784000    65.712600
N     52.243977    31.169220    64.448546
H     51.933460    31.831722    65.144800
H     52.440146    30.214182    64.712213
N     51.684501    31.656404    66.629449
H     51.880670    30.701366    66.893116
H     51.798849    31.948940    65.669528
N     52.351721    29.526376    66.059805
H     52.466070    29.818911    65.099884
H     52.041204    30.188878    66.756059
C     61.089100    29.621200    43.244400
O     62.272925    29.682976    42.847863
O     60.377816    28.593817    43.276959
H     60.631121    30.557050    43.597161
C     63.276700    25.052200    45.885300
O     64.460525    25.113976    45.488763
O     62.565416    24.024817    45.917859
H     62.818721    25.988050    46.238061
C     59.819400    27.966200    66.439700
N     59.969977    28.351420    65.175646
H     59.659460    29.013922    65.871900
H     60.166146    27.396382    65.439313
N     59.410501    28.838604    67.356549
H     59.606670    27.883566    67.620216
H     59.524849    29.131140    66.396628
N     60.077721    26.708576    66.786905
H     60.192070    27.001111    65.826984
H     59.767204    27.371078    67.483159
C     62.879100    21.874900    51.908200
O     64.062925    21.936676    51.511663
O     62.167816    20.847517    51.940759
H     62.421121    22.810750    52.260961
C     59.495400    23.078200    48.572300
O     60.679225    23.139976    48.175763
O     58.784116    22.050817    48.604859
H     59.037421    24.014050    48.925061
C     71.418400    30.850300    50.286100
O     72.602225    30.912076    49.889563
O     70.707116    29.822917    50.318659
H     70.960421    31.786150    50.638861
C     67.700500    24.617100    49.544100
O     68.884325    24.678876    49.147563
O     66.989216    23.589717    49.576659
H     67.242521    25.552950    49.896861
C     56.190900    34.472100    68.047800
N     56.341477    34.857320    66.783746
H     56.030960    35.519822    67.480000
H     56.537646    33.902282    67.047413
N     55.782001    35.344504    68.964649
H     55.978170    34.389466    69.228316
H     55.896349    35.637040    68.004728
N     56.449221    33.214476    68.395005
H     56.563570    33.507011    67.435084
H     56.138704    33.876978    69.091259
C     68.809400    31.706300    45.898000
O     69.993225    31.768076    45.501463
O     68.098116    30.678917    45.930559
H     68.351421    32.642150    46.250761
