94
shell7p9 K=10 +-1 net-free proxy+9.71
C     60.11193800    34.38396900    57.21013200
H     60.60719900    33.42993900    57.38460900
H     60.72469300    35.27181800    57.05919300
C     58.78057700    34.50353200    57.15195800
C     58.09218200    35.83426100    56.89335400
O     58.81246700    36.81821800    56.57878900
O     56.83954900    35.84891700    57.00961700
O     57.93461500    33.42640300    57.34599800
C     57.67693600    32.53773200    56.20080600
H     57.01901700    31.76376900    56.62407200
C     58.98648700    31.96184000    55.79317200
H     59.46393000    31.24298300    56.46049600
C     59.68310500    32.48267100    54.76815100
C     59.06432100    33.48370900    53.89317900
H     59.70236100    33.90454400    53.11096900
C     57.78125300    33.86565900    54.03153300
H     57.33218100    34.60235400    53.35662900
C     56.88979900    33.27109300    55.08618200
H     56.34719000    34.09064800    55.58588000
O     55.96286300    32.39770700    54.43466800
H     55.31084500    32.10952700    55.09277000
C     61.12320000    32.06212600    54.53420800
O     61.78496200    31.70232800    55.54338100
O     61.54107100    32.10651300    53.35273800
C     60.277000    29.626000    66.134400
N     60.427577    30.011220    64.870346
H     60.117060    30.673722    65.566600
H     60.623746    29.056182    65.134013
N     59.868101    30.498404    67.051249
H     60.064270    29.543366    67.314916
H     59.982449    30.790940    66.091328
N     60.535321    28.368376    66.481605
H     60.649670    28.660911    65.521684
H     60.224804    29.030878    67.177859
C     62.948200    27.766700    45.114000
O     64.132025    27.828476    44.717463
O     62.236916    26.739317    45.146559
H     62.490221    28.702550    45.466761
C     67.305300    24.260000    53.857500
O     68.489125    24.321776    53.460963
O     66.594016    23.232617    53.890059
H     66.847321    25.195850    54.210261
C     50.821900    29.924900    63.208600
N     50.972477    30.310120    61.944546
H     50.661960    30.972622    62.640800
H     51.168646    29.355082    62.208213
N     50.413001    30.797304    64.125449
H     50.609170    29.842266    64.389116
H     50.527349    31.089840    63.165528
N     51.080221    28.667276    63.555805
H     51.194570    28.959811    62.595884
H     50.769704    29.329778    64.252059
C     68.678200    32.882800    47.258300
O     69.862025    32.944576    46.861763
O     67.966916    31.855417    47.290859
H     68.220221    33.818650    47.611061
C     56.938000    24.707400    49.087800
O     58.121825    24.769176    48.691263
O     56.226716    23.680017    49.120359
H     56.480021    25.643250    49.440561
C     56.457300    36.509900    66.673300
N     56.607877    36.895120    65.409246
H     56.297360    37.557622    66.105500
H     56.804046    35.940082    65.672913
N     56.048401    37.382304    67.590149
H     56.244570    36.427266    67.853816
H     56.162749    37.674840    66.630228
N     56.715621    35.252276    67.020505
H     56.829970    35.544811    66.060584
H     56.405104    35.914778    67.716759
C     65.443100    24.717000    49.010500
O     66.626925    24.778776    48.613963
O     64.731816    23.689617    49.043059
H     64.985121    25.652850    49.363261
C     65.258100    38.968200    64.028200
N     65.408677    39.353420    62.764146
H     65.098160    40.015922    63.460400
H     65.604846    38.398382    63.027813
N     64.849201    39.840604    64.945049
H     65.045370    38.885566    65.208716
H     64.963549    40.133140    63.985128
N     65.516421    37.710576    64.375405
H     65.630770    38.003111    63.415484
H     65.205904    38.373078    65.071659
C     52.704600    41.292900    63.487300
N     52.855177    41.678120    62.223246
H     52.544660    42.340622    62.919500
H     53.051346    40.723082    62.486913
N     52.295701    42.165304    64.404149
H     52.491870    41.210266    64.667816
H     52.410049    42.457840    63.444228
N     52.962921    40.035276    63.834505
H     53.077270    40.327811    62.874584
H     52.652404    40.697778    64.530759
