88
shell4p0 K=10 +-1 net-free proxy-2.38
C     60.11193800    34.38396900    57.21013200
H     60.60719900    33.42993900    57.38460900
H     60.72469300    35.27181800    57.05919300
C     58.78057700    34.50353200    57.15195800
C     58.09218200    35.83426100    56.89335400
O     58.81246700    36.81821800    56.57878900
O     56.83954900    35.84891700    57.00961700
O     57.93461500    33.42640300    57.34599800
C     57.67693600    32.53773200    56.20080600
H     57.01901700    31.76376900    56.62407200
C     58.98648700    31.96184000    55.79317200
H     59.46393000    31.24298300    56.46049600
C     59.68310500    32.48267100    54.76815100
C     59.06432100    33.48370900    53.89317900
H     59.70236100    33.90454400    53.11096900
C     57.78125300    33.86565900    54.03153300
H     57.33218100    34.60235400    53.35662900
C     56.88979900    33.27109300    55.08618200
H     56.34719000    34.09064800    55.58588000
O     55.96286300    32.39770700    54.43466800
H     55.31084500    32.10952700    55.09277000
C     61.12320000    32.06212600    54.53420800
O     61.78496200    31.70232800    55.54338100
O     61.54107100    32.10651300    53.35273800
C     59.516100    29.396500    61.326800
N     59.666677    29.781720    60.062746
H     59.356160    30.444222    60.759000
H     59.862846    28.826682    60.326413
N     59.107201    30.268904    62.243649
H     59.303370    29.313866    62.507316
H     59.221549    30.561440    61.283728
N     59.774421    28.138876    61.674005
H     59.888770    28.431411    60.714084
H     59.463904    28.801378    62.370259
C     66.875900    30.769800    52.921700
O     68.059725    30.831576    52.525163
O     66.164616    29.742417    52.954259
H     66.417921    31.705650    53.274461
C     55.233900    36.894400    62.182600
N     55.384477    37.279620    60.918546
H     55.073960    37.942122    61.614800
H     55.580646    36.324582    61.182213
N     54.825001    37.766804    63.099449
H     55.021170    36.811766    63.363116
H     54.939349    38.059340    62.139528
N     55.492221    35.636776    62.529805
H     55.606570    35.929311    61.569884
H     55.181704    36.299278    63.226059
C     64.950800    27.184500    55.632700
O     66.134625    27.246276    55.236163
O     64.239516    26.157117    55.665259
H     64.492821    28.120350    55.985461
C     58.150200    31.250100    48.734100
O     59.334025    31.311876    48.337563
O     57.438916    30.222717    48.766659
H     57.692221    32.185950    49.086861
C     60.249600    26.675600    52.900200
O     61.433425    26.737376    52.503663
O     59.538316    25.648217    52.932759
H     59.791621    27.611450    53.252961
C     59.145200    34.356000    63.288800
N     59.295777    34.741220    62.024746
H     58.985260    35.403722    62.721000
H     59.491946    33.786182    62.288413
N     58.736301    35.228404    64.205649
H     58.932470    34.273366    64.469316
H     58.850649    35.520940    63.245728
N     59.403521    33.098376    63.636005
H     59.517870    33.390911    62.676084
H     59.093004    33.760878    64.332259
C     63.392300    33.638400    48.386800
O     64.576125    33.700176    47.990263
O     62.681016    32.611017    48.419359
H     62.934321    34.574250    48.739561
C     63.525900    28.490400    49.691100
O     64.709725    28.552176    49.294563
O     62.814616    27.463017    49.723659
H     63.067921    29.426250    50.043861
C     55.237100    31.635000    61.969500
N     55.387677    32.020220    60.705446
H     55.077160    32.682722    61.401700
H     55.583846    31.065182    60.969113
N     54.828201    32.507404    62.886349
H     55.024370    31.552366    63.150016
H     54.942549    32.799940    61.926428
N     55.495421    30.377376    62.316705
H     55.609770    30.669911    61.356784
H     55.184904    31.039878    63.012959
