100
shell2p0 K=10 +-1 net-free proxy-11.22
C     60.11193800    34.38396900    57.21013200
H     60.60719900    33.42993900    57.38460900
H     60.72469300    35.27181800    57.05919300
C     58.78057700    34.50353200    57.15195800
C     58.09218200    35.83426100    56.89335400
O     58.81246700    36.81821800    56.57878900
O     56.83954900    35.84891700    57.00961700
O     57.93461500    33.42640300    57.34599800
C     57.67693600    32.53773200    56.20080600
H     57.01901700    31.76376900    56.62407200
C     58.98648700    31.96184000    55.79317200
H     59.46393000    31.24298300    56.46049600
C     59.68310500    32.48267100    54.76815100
C     59.06432100    33.48370900    53.89317900
H     59.70236100    33.90454400    53.11096900
C     57.78125300    33.86565900    54.03153300
H     57.33218100    34.60235400    53.35662900
C     56.88979900    33.27109300    55.08618200
H     56.34719000    34.09064800    55.58588000
O     55.96286300    32.39770700    54.43466800
H     55.31084500    32.10952700    55.09277000
C     61.12320000    32.06212600    54.53420800
O     61.78496200    31.70232800    55.54338100
O     61.54107100    32.10651300    53.35273800
C     61.346900    37.082000    59.617400
N     61.497477    37.467220    58.353346
H     61.186960    38.129722    59.049600
H     61.693646    36.512182    58.617013
N     60.938001    37.954404    60.534249
H     61.134170    36.999366    60.797916
H     61.052349    38.246940    59.574328
N     61.605221    35.824376    59.964605
H     61.719570    36.116911    59.004684
H     61.294704    36.486878    60.660859
C     58.887200    30.255300    51.892100
O     60.071025    30.317076    51.495563
O     58.175916    29.227917    51.924659
H     58.429221    31.191150    52.244861
C     63.810500    29.095600    54.347900
O     64.994325    29.157376    53.951363
O     63.099216    28.068217    54.380459
H     63.352521    30.031450    54.700661
C     53.217400    31.678700    51.945700
N     53.367977    32.063920    50.681646
H     53.057460    32.726422    51.377900
H     53.564146    31.108882    50.945313
N     52.808501    32.551104    52.862549
H     53.004670    31.596066    53.126216
H     52.922849    32.843640    51.902628
N     53.475721    30.421076    52.292905
H     53.590070    30.713611    51.332984
H     53.165204    31.083578    52.989159
C     53.859400    36.723300    55.359300
N     54.009977    37.108520    54.095246
H     53.699460    37.771022    54.791500
H     54.206146    36.153482    54.358913
N     53.450501    37.595704    56.276149
H     53.646670    36.640666    56.539816
H     53.564849    37.888240    55.316228
N     54.117721    35.465676    55.706505
H     54.232070    35.758211    54.746584
H     53.807204    36.128178    56.402759
C     54.663400    29.533700    57.724300
N     54.813977    29.918920    56.460246
H     54.503460    30.581422    57.156500
H     55.010146    28.963882    56.723913
N     54.254501    30.406104    58.641149
H     54.450670    29.451066    58.904816
H     54.368849    30.698640    57.681228
N     54.921721    28.276076    58.071505
H     55.036070    28.568611    57.111584
H     54.611204    28.938578    58.767759
C     64.474900    32.896900    51.586400
O     65.658725    32.958676    51.189863
O     63.763616    31.869517    51.618959
H     64.016921    33.832750    51.939161
C     55.337900    33.734700    59.831800
N     55.488477    34.119920    58.567746
H     55.177960    34.782422    59.264000
H     55.684646    33.164882    58.831413
N     54.929001    34.607104    60.748649
H     55.125170    33.652066    61.012316
H     55.043349    34.899640    59.788728
N     55.596221    32.477076    60.179005
H     55.710570    32.769611    59.219084
H     55.285704    33.139578    60.875259
C     59.644300    31.497300    60.261900
N     59.794877    31.882520    58.997846
H     59.484360    32.545022    59.694100
H     59.991046    30.927482    59.261513
N     59.235401    32.369704    61.178749
H     59.431570    31.414666    61.442416
H     59.349749    32.662240    60.218828
N     59.902621    30.239676    60.609105
H     60.016970    30.532211    59.649184
H     59.592104    30.902178    61.305359
C     58.917600    34.607900    50.093900
O     60.101425    34.669676    49.697363
O     58.206316    33.580517    50.126459
H     58.459621    35.543750    50.446661
