70
shell13p0 K=10 +-1 net-free proxy+12.93
C     60.11193800    34.38396900    57.21013200
H     60.60719900    33.42993900    57.38460900
H     60.72469300    35.27181800    57.05919300
C     58.78057700    34.50353200    57.15195800
C     58.09218200    35.83426100    56.89335400
O     58.81246700    36.81821800    56.57878900
O     56.83954900    35.84891700    57.00961700
O     57.93461500    33.42640300    57.34599800
C     57.67693600    32.53773200    56.20080600
H     57.01901700    31.76376900    56.62407200
C     58.98648700    31.96184000    55.79317200
H     59.46393000    31.24298300    56.46049600
C     59.68310500    32.48267100    54.76815100
C     59.06432100    33.48370900    53.89317900
H     59.70236100    33.90454400    53.11096900
C     57.78125300    33.86565900    54.03153300
H     57.33218100    34.60235400    53.35662900
C     56.88979900    33.27109300    55.08618200
H     56.34719000    34.09064800    55.58588000
O     55.96286300    32.39770700    54.43466800
H     55.31084500    32.10952700    55.09277000
C     61.12320000    32.06212600    54.53420800
O     61.78496200    31.70232800    55.54338100
O     61.54107100    32.10651300    53.35273800
C     64.610200    24.440000    41.410600
O     65.794025    24.501776    41.014063
O     63.898916    23.412617    41.443159
H     64.152221    25.375850    41.763361
C     69.343600    25.659100    42.943900
O     70.527425    25.720876    42.547363
O     68.632316    24.631717    42.976459
H     68.885621    26.594950    43.296661
C     72.872500    25.314900    47.331900
O     74.056325    25.376676    46.935363
O     72.161216    24.287517    47.364459
H     72.414521    26.250750    47.684661
C     71.592600    30.793000    42.958600
O     72.776425    30.854776    42.562063
O     70.881316    29.765617    42.991159
H     71.134621    31.728850    43.311361
C     69.019000    21.220600    47.322100
O     70.202825    21.282376    46.925563
O     68.307716    20.193217    47.354659
H     68.561021    22.156450    47.674861
C     66.300200    28.865500    40.025200
O     67.484025    28.927276    39.628663
O     65.588916    27.838117    40.057759
H     65.842221    29.801350    40.377961
C     63.730900    20.001000    45.640500
O     64.914725    20.062776    45.243963
O     63.019616    18.973617    45.673059
H     63.272921    20.936850    45.993261
C     54.758500    30.773500    71.646100
N     54.909077    31.158720    70.382046
H     54.598560    31.821222    71.078300
H     55.105246    30.203682    70.645713
N     54.349601    31.645904    72.562949
H     54.545770    30.690866    72.826616
H     54.463949    31.938440    71.603028
N     55.016821    29.515876    71.993305
H     55.131170    29.808411    71.033384
H     54.706304    30.178378    72.689559
C     60.794900    27.085200    39.750600
O     61.978725    27.146976    39.354063
O     60.083616    26.057817    39.783159
H     60.336921    28.021050    40.103361
C     74.496100    30.580200    46.978500
O     75.679925    30.641976    46.581963
O     73.784816    29.552817    47.011059
H     74.038121    31.516050    47.331261
