64
shell15p0 K=10 +-1 net-free proxy+13.81
C     60.11193800    34.38396900    57.21013200
H     60.60719900    33.42993900    57.38460900
H     60.72469300    35.27181800    57.05919300
C     58.78057700    34.50353200    57.15195800
C     58.09218200    35.83426100    56.89335400
O     58.81246700    36.81821800    56.57878900
O     56.83954900    35.84891700    57.00961700
O     57.93461500    33.42640300    57.34599800
C     57.67693600    32.53773200    56.20080600
H     57.01901700    31.76376900    56.62407200
C     58.98648700    31.96184000    55.79317200
H     59.46393000    31.24298300    56.46049600
C     59.68310500    32.48267100    54.76815100
C     59.06432100    33.48370900    53.89317900
H     59.70236100    33.90454400    53.11096900
C     57.78125300    33.86565900    54.03153300
H     57.33218100    34.60235400    53.35662900
C     56.88979900    33.27109300    55.08618200
H     56.34719000    34.09064800    55.58588000
O     55.96286300    32.39770700    54.43466800
H     55.31084500    32.10952700    55.09277000
C     61.12320000    32.06212600    54.53420800
O     61.78496200    31.70232800    55.54338100
O     61.54107100    32.10651300    53.35273800
C     62.300000    23.675600    39.167600
O     63.483825    23.737376    38.771063
O     61.588716    22.648217    39.200159
H     61.842021    24.611450    39.520361
C     70.334100    23.270200    42.513600
O     71.517925    23.331976    42.117063
O     69.622816    22.242817    42.546159
H     69.876121    24.206050    42.866361
C     67.161400    25.402400    39.340400
O     68.345225    25.464176    38.943863
O     66.450116    24.375017    39.372959
H     66.703421    26.338250    39.693161
C     69.727100    19.853400    45.886800
O     70.910925    19.915176    45.490263
O     69.015816    18.826017    45.919359
H     69.269121    20.789250    46.239561
C     71.268500    29.653500    40.228300
O     72.452325    29.715276    39.831763
O     70.557216    28.626117    40.260859
H     70.810521    30.589350    40.581061
C     73.272400    21.485000    48.614900
O     74.456225    21.546776    48.218363
O     72.561116    20.457617    48.647459
H     72.814421    22.420850    48.967661
C     74.589200    25.926500    45.325700
O     75.773025    25.988276    44.929163
O     73.877916    24.899117    45.358259
H     74.131221    26.862350    45.678461
C     66.527700    29.855500    37.766200
O     67.711525    29.917276    37.369663
O     65.816416    28.828117    37.798759
H     66.069721    30.791350    38.118961
C     65.516400    20.496300    42.294200
O     66.700225    20.558076    41.897663
O     64.805116    19.468917    42.326759
H     65.058421    21.432150    42.646961
C     75.275000    30.494800    44.316700
O     76.458825    30.556576    43.920163
O     74.563716    29.467417    44.349259
H     74.817021    31.430650    44.669461
