76
shell12p0 K=10 +-1 net-free proxy+12.33
C     60.11193800    34.38396900    57.21013200
H     60.60719900    33.42993900    57.38460900
H     60.72469300    35.27181800    57.05919300
C     58.78057700    34.50353200    57.15195800
C     58.09218200    35.83426100    56.89335400
O     58.81246700    36.81821800    56.57878900
O     56.83954900    35.84891700    57.00961700
O     57.93461500    33.42640300    57.34599800
C     57.67693600    32.53773200    56.20080600
H     57.01901700    31.76376900    56.62407200
C     58.98648700    31.96184000    55.79317200
H     59.46393000    31.24298300    56.46049600
C     59.68310500    32.48267100    54.76815100
C     59.06432100    33.48370900    53.89317900
H     59.70236100    33.90454400    53.11096900
C     57.78125300    33.86565900    54.03153300
H     57.33218100    34.60235400    53.35662900
C     56.88979900    33.27109300    55.08618200
H     56.34719000    34.09064800    55.58588000
O     55.96286300    32.39770700    54.43466800
H     55.31084500    32.10952700    55.09277000
C     61.12320000    32.06212600    54.53420800
O     61.78496200    31.70232800    55.54338100
O     61.54107100    32.10651300    53.35273800
C     53.068100    31.041700    70.049600
N     53.218677    31.426920    68.785546
H     52.908160    32.089422    69.481800
H     53.414846    30.471882    69.049213
N     52.659201    31.914104    70.966449
H     52.855370    30.959066    71.230116
H     52.773549    32.206640    70.006528
N     53.326421    29.784076    70.396805
H     53.440770    30.076611    69.436884
H     53.015904    30.446578    71.093059
C     70.789800    28.226700    44.289700
O     71.973625    28.288476    43.893163
O     70.078516    27.199317    44.322259
H     70.331821    29.162550    44.642461
C     66.509000    26.109900    42.302200
O     67.692825    26.171676    41.905663
O     65.797716    25.082517    42.334759
H     66.051021    27.045750    42.654961
C     57.041800    33.597200    71.334200
N     57.192377    33.982420    70.070146
H     56.881860    34.644922    70.766400
H     57.388546    33.027382    70.333813
N     56.632901    34.469604    72.251049
H     56.829070    33.514566    72.514716
H     56.747249    34.762140    71.291128
N     57.300121    32.339576    71.681405
H     57.414470    32.632111    70.721484
H     56.989604    33.002078    72.377659
C     70.706900    24.379900    47.104400
O     71.890725    24.441676    46.707863
O     69.995616    23.352517    47.136959
H     70.248921    25.315750    47.457161
C     73.691200    27.149900    50.101200
O     74.875025    27.211676    49.704663
O     72.979916    26.122517    50.133759
H     73.233221    28.085750    50.453961
C     67.751700    30.840600    41.411400
O     68.935525    30.902376    41.014863
O     67.040416    29.813217    41.443959
H     67.293721    31.776450    41.764161
C     65.171300    21.708800    45.513500
O     66.355125    21.770576    45.116963
O     64.460016    20.681417    45.546059
H     64.713321    22.644650    45.866261
C     68.498900    20.940600    50.243000
O     69.682725    21.002376    49.846463
O     67.787616    19.913217    50.275559
H     68.040921    21.876450    50.595761
C     61.667100    26.324900    41.132400
O     62.850925    26.386676    40.735863
O     60.955816    25.297517    41.164959
H     61.209121    27.260750    41.485161
