76
shell10p0 K=10 +-1 net-free proxy+10.75
C     60.11193800    34.38396900    57.21013200
H     60.60719900    33.42993900    57.38460900
H     60.72469300    35.27181800    57.05919300
C     58.78057700    34.50353200    57.15195800
C     58.09218200    35.83426100    56.89335400
O     58.81246700    36.81821800    56.57878900
O     56.83954900    35.84891700    57.00961700
O     57.93461500    33.42640300    57.34599800
C     57.67693600    32.53773200    56.20080600
H     57.01901700    31.76376900    56.62407200
C     58.98648700    31.96184000    55.79317200
H     59.46393000    31.24298300    56.46049600
C     59.68310500    32.48267100    54.76815100
C     59.06432100    33.48370900    53.89317900
H     59.70236100    33.90454400    53.11096900
C     57.78125300    33.86565900    54.03153300
H     57.33218100    34.60235400    53.35662900
C     56.88979900    33.27109300    55.08618200
H     56.34719000    34.09064800    55.58588000
O     55.96286300    32.39770700    54.43466800
H     55.31084500    32.10952700    55.09277000
C     61.12320000    32.06212600    54.53420800
O     61.78496200    31.70232800    55.54338100
O     61.54107100    32.10651300    53.35273800
C     63.635700    28.441000    42.635400
O     64.819525    28.502776    42.238863
O     62.924416    27.413617    42.667959
H     63.177721    29.376850    42.988161
C     68.771900    32.896900    44.420700
O     69.955725    32.958676    44.024163
O     68.060616    31.869517    44.453259
H     68.313921    33.832750    44.773461
C     65.465300    24.845200    45.317400
O     66.649125    24.906976    44.920863
O     64.754016    23.817817    45.349959
H     65.007321    25.781050    45.670161
C     67.815900    23.375900    49.219300
O     68.999725    23.437676    48.822763
O     67.104616    22.348517    49.251859
H     67.357921    24.311750    49.572061
C     72.027800    27.916700    51.085000
O     73.211625    27.978476    50.688463
O     71.316516    26.889317    51.117559
H     71.569821    28.852550    51.437761
C     61.652200    21.866000    48.079400
O     62.836025    21.927776    47.682863
O     60.940916    20.838617    48.111959
H     61.194221    22.801850    48.432161
C     58.841700    32.141800    69.274800
N     58.992277    32.527020    68.010746
H     58.681760    33.189522    68.707000
H     59.188446    31.571982    68.274413
N     58.432801    33.014204    70.191649
H     58.628970    32.059166    70.455316
H     58.547149    33.306740    69.231728
N     59.100021    30.884176    69.622005
H     59.214370    31.176711    68.662084
H     58.789504    31.546678    70.318259
C     59.621500    25.894800    43.845000
O     60.805325    25.956576    43.448463
O     58.910216    24.867417    43.877559
H     59.163521    26.830650    44.197761
C     53.938700    31.901500    68.379400
N     54.089277    32.286720    67.115346
H     53.778760    32.949222    67.811600
H     54.285446    31.331682    67.379013
N     53.529801    32.773904    69.296249
H     53.725970    31.818866    69.559916
H     53.644149    33.066440    68.336328
N     54.197021    30.643876    68.726605
H     54.311370    30.936411    67.766684
H     53.886504    31.306378    69.422859
C     69.612600    28.530400    45.954900
O     70.796425    28.592176    45.558363
O     68.901316    27.503017    45.987459
H     69.154621    29.466250    46.307661
