88
shell6p0 K=10 +-1 net-free proxy+4.20
C     60.11193800    34.38396900    57.21013200
H     60.60719900    33.42993900    57.38460900
H     60.72469300    35.27181800    57.05919300
C     58.78057700    34.50353200    57.15195800
C     58.09218200    35.83426100    56.89335400
O     58.81246700    36.81821800    56.57878900
O     56.83954900    35.84891700    57.00961700
O     57.93461500    33.42640300    57.34599800
C     57.67693600    32.53773200    56.20080600
H     57.01901700    31.76376900    56.62407200
C     58.98648700    31.96184000    55.79317200
H     59.46393000    31.24298300    56.46049600
C     59.68310500    32.48267100    54.76815100
C     59.06432100    33.48370900    53.89317900
H     59.70236100    33.90454400    53.11096900
C     57.78125300    33.86565900    54.03153300
H     57.33218100    34.60235400    53.35662900
C     56.88979900    33.27109300    55.08618200
H     56.34719000    34.09064800    55.58588000
O     55.96286300    32.39770700    54.43466800
H     55.31084500    32.10952700    55.09277000
C     61.12320000    32.06212600    54.53420800
O     61.78496200    31.70232800    55.54338100
O     61.54107100    32.10651300    53.35273800
C     58.387100    36.002100    65.032200
N     58.537677    36.387320    63.768146
H     58.227160    37.049822    64.464400
H     58.733846    35.432282    64.031813
N     57.978201    36.874504    65.949049
H     58.174370    35.919466    66.212716
H     58.092549    37.167040    64.989128
N     58.645421    34.744476    65.379405
H     58.759770    35.037011    64.419484
H     58.334904    35.406978    66.075659
C     60.665600    31.871500    45.890100
O     61.849425    31.933276    45.493563
O     59.954316    30.844117    45.922659
H     60.207621    32.807350    46.242861
C     53.279100    33.869100    63.461200
N     53.429677    34.254320    62.197146
H     53.119160    34.916822    62.893400
H     53.625846    33.299282    62.460813
N     52.870201    34.741504    64.378049
H     53.066370    33.786466    64.641716
H     52.984549    35.034040    63.418128
N     53.537421    32.611476    63.808405
H     53.651770    32.904011    62.848484
H     53.226904    33.273978    64.504659
C     59.269300    31.209400    64.902300
N     59.419877    31.594620    63.638246
H     59.109360    32.257122    64.334500
H     59.616046    30.639582    63.901913
N     58.860401    32.081804    65.819149
H     59.056570    31.126766    66.082816
H     58.974749    32.374340    64.859228
N     59.527621    29.951776    65.249505
H     59.641970    30.244311    64.289584
H     59.217104    30.614278    65.945759
C     56.331000    28.092100    62.938500
N     56.481577    28.477320    61.674446
H     56.171060    29.139822    62.370700
H     56.677746    27.522282    61.938113
N     55.922101    28.964504    63.855349
H     56.118270    28.009466    64.119016
H     56.036449    29.257040    62.895428
N     56.589321    26.834476    63.285705
H     56.703670    27.127011    62.325784
H     56.278804    27.496978    63.981959
C     67.429600    32.206800    48.682100
O     68.613425    32.268576    48.285563
O     66.718316    31.179417    48.714659
H     66.971621    33.142650    49.034861
C     58.855800    27.713000    47.877100
O     60.039625    27.774776    47.480563
O     58.144516    26.685617    47.909659
H     58.397821    28.648850    48.229861
C     63.347300    25.021300    51.602200
O     64.531125    25.083076    51.205663
O     62.636016    23.993917    51.634759
H     62.889321    25.957150    51.954961
C     64.683100    28.042400    47.865200
O     65.866925    28.104176    47.468663
O     63.971816    27.015017    47.897759
H     64.225121    28.978250    48.217961
C     68.212700    28.673600    52.862500
O     69.396525    28.735376    52.465963
O     67.501416    27.646217    52.895059
H     67.754721    29.609450    53.215261
