88
shell8p1 K=10 +-1 net-free proxy+10.34
C     60.11193800    34.38396900    57.21013200
H     60.60719900    33.42993900    57.38460900
H     60.72469300    35.27181800    57.05919300
C     58.78057700    34.50353200    57.15195800
C     58.09218200    35.83426100    56.89335400
O     58.81246700    36.81821800    56.57878900
O     56.83954900    35.84891700    57.00961700
O     57.93461500    33.42640300    57.34599800
C     57.67693600    32.53773200    56.20080600
H     57.01901700    31.76376900    56.62407200
C     58.98648700    31.96184000    55.79317200
H     59.46393000    31.24298300    56.46049600
C     59.68310500    32.48267100    54.76815100
C     59.06432100    33.48370900    53.89317900
H     59.70236100    33.90454400    53.11096900
C     57.78125300    33.86565900    54.03153300
H     57.33218100    34.60235400    53.35662900
C     56.88979900    33.27109300    55.08618200
H     56.34719000    34.09064800    55.58588000
O     55.96286300    32.39770700    54.43466800
H     55.31084500    32.10952700    55.09277000
C     61.12320000    32.06212600    54.53420800
O     61.78496200    31.70232800    55.54338100
O     61.54107100    32.10651300    53.35273800
C     64.939600    33.265500    44.428700
O     66.123425    33.327276    44.032163
O     64.228316    32.238117    44.461259
H     64.481621    34.201350    44.781461
C     57.483400    32.050400    67.315500
N     57.633977    32.435620    66.051446
H     57.323460    33.098122    66.747700
H     57.830146    31.480582    66.315113
N     57.074501    32.922804    68.232349
H     57.270670    31.967766    68.496016
H     57.188849    33.215340    67.272428
N     57.741721    30.792776    67.662705
H     57.856070    31.085311    66.702784
H     57.431204    31.455278    68.358959
C     57.234800    27.877200    45.864300
O     58.418625    27.938976    45.467763
O     56.523516    26.849817    45.896859
H     56.776821    28.813050    46.217061
C     70.604200    27.880100    55.895700
O     71.788025    27.941876    55.499163
O     69.892916    26.852717    55.928259
H     70.146221    28.815950    56.248461
C     56.619700    24.873900    63.107100
N     56.770277    25.259120    61.843046
H     56.459760    25.921622    62.539300
H     56.966446    24.304082    62.106713
N     56.210801    25.746304    64.023949
H     56.406970    24.791266    64.287616
H     56.325149    26.038840    63.064028
N     56.878021    23.616276    63.454305
H     56.992370    23.908811    62.494384
H     56.567504    24.278778    64.150559
C     67.627200    26.532800    48.413400
O     68.811025    26.594576    48.016863
O     66.915916    25.505417    48.445959
H     67.169221    27.468650    48.766161
C     67.235400    23.780300    55.388400
O     68.419225    23.842076    54.991863
O     66.524116    22.752917    55.420959
H     66.777421    24.716150    55.741161
C     52.053600    26.340300    62.610700
N     52.204177    26.725520    61.346646
H     51.893660    27.388022    62.042900
H     52.400346    25.770482    61.610313
N     51.644701    27.212704    63.527549
H     51.840870    26.257666    63.791216
H     51.759049    27.505240    62.567628
N     52.311921    25.082676    62.957905
H     52.426270    25.375211    61.997984
H     52.001404    25.745178    63.654159
C     60.990400    38.202100    66.190700
N     61.140977    38.587320    64.926646
H     60.830460    39.249822    65.622900
H     61.337146    37.632282    65.190313
N     60.581501    39.074504    67.107549
H     60.777670    38.119466    67.371216
H     60.695849    39.367040    66.147628
N     61.248721    36.944476    66.537905
H     61.363070    37.237011    65.577984
H     60.938204    37.606978    67.234159
C     60.542700    22.288100    53.749100
O     61.726525    22.349876    53.352563
O     59.831416    21.260717    53.781659
H     60.084721    23.223950    54.101861
