94
shell3p0 K=10 +-1 net-free proxy-5.53
C     60.11193800    34.38396900    57.21013200
H     60.60719900    33.42993900    57.38460900
H     60.72469300    35.27181800    57.05919300
C     58.78057700    34.50353200    57.15195800
C     58.09218200    35.83426100    56.89335400
O     58.81246700    36.81821800    56.57878900
O     56.83954900    35.84891700    57.00961700
O     57.93461500    33.42640300    57.34599800
C     57.67693600    32.53773200    56.20080600
H     57.01901700    31.76376900    56.62407200
C     58.98648700    31.96184000    55.79317200
H     59.46393000    31.24298300    56.46049600
C     59.68310500    32.48267100    54.76815100
C     59.06432100    33.48370900    53.89317900
H     59.70236100    33.90454400    53.11096900
C     57.78125300    33.86565900    54.03153300
H     57.33218100    34.60235400    53.35662900
C     56.88979900    33.27109300    55.08618200
H     56.34719000    34.09064800    55.58588000
O     55.96286300    32.39770700    54.43466800
H     55.31084500    32.10952700    55.09277000
C     61.12320000    32.06212600    54.53420800
O     61.78496200    31.70232800    55.54338100
O     61.54107100    32.10651300    53.35273800
C     60.781600    28.464000    50.792600
O     61.965425    28.525776    50.396063
O     60.070316    27.436617    50.825159
H     60.323621    29.399850    51.145361
C     61.790600    39.001700    59.199700
N     61.941177    39.386920    57.935646
H     61.630660    40.049422    58.631900
H     62.137346    38.431882    58.199313
N     61.381701    39.874104    60.116549
H     61.577870    38.919066    60.380216
H     61.496049    40.166640    59.156628
N     62.048921    37.744076    59.546905
H     62.163270    38.036611    58.586984
H     61.738404    38.406578    60.243159
C     64.707600    28.672100    53.911400
O     65.891425    28.733876    53.514863
O     63.996316    27.644717    53.943959
H     64.249621    29.607950    54.264161
C     65.855800    33.621500    55.143000
O     67.039625    33.683276    54.746463
O     65.144516    32.594117    55.175559
H     65.397821    34.557350    55.495761
C     52.332700    35.835200    56.699500
N     52.483277    36.220420    55.435446
H     52.172760    36.882922    56.131700
H     52.679446    35.265382    55.699113
N     51.923801    36.707604    57.616349
H     52.119970    35.752566    57.880016
H     52.038149    37.000140    56.656428
N     52.591021    34.577576    57.046705
H     52.705370    34.870111    56.086784
H     52.280504    35.240078    57.742959
C     57.532500    35.946200    61.718100
N     57.683077    36.331420    60.454046
H     57.372560    36.993922    61.150300
H     57.879246    35.376382    60.717713
N     57.123601    36.818604    62.634949
H     57.319770    35.863566    62.898616
H     57.237949    37.111140    61.675028
N     57.790821    34.688576    62.065305
H     57.905170    34.981111    61.105384
H     57.480304    35.351078    62.761559
C     55.004700    31.643600    60.428300
N     55.155277    32.028820    59.164246
H     54.844760    32.691322    59.860500
H     55.351446    31.073782    59.427913
N     54.595801    32.516004    61.345149
H     54.791970    31.560966    61.608816
H     54.710149    32.808540    60.385228
N     55.263021    30.385976    60.775505
H     55.377370    30.678511    59.815584
H     54.952504    31.048478    61.471759
C     64.998000    32.454600    50.469700
O     66.181825    32.516376    50.073163
O     64.286716    31.427217    50.502259
H     64.540021    33.390450    50.822461
C     59.745800    33.694900    48.921300
O     60.929625    33.756676    48.524763
O     59.034516    32.667517    48.953859
H     59.287821    34.630750    49.274061
C     60.697100    31.861900    61.293700
N     60.847677    32.247120    60.029646
H     60.537160    32.909622    60.725900
H     61.043846    31.292082    60.293313
N     60.288201    32.734304    62.210549
H     60.484370    31.779266    62.474216
H     60.402549    33.026840    61.250628
N     60.955421    30.604276    61.640905
H     61.069770    30.896811    60.680984
H     60.644904    31.266778    62.337159
