82
shell9p0 K=10 +-1 net-free proxy+9.82
C     60.11193800    34.38396900    57.21013200
H     60.60719900    33.42993900    57.38460900
H     60.72469300    35.27181800    57.05919300
C     58.78057700    34.50353200    57.15195800
C     58.09218200    35.83426100    56.89335400
O     58.81246700    36.81821800    56.57878900
O     56.83954900    35.84891700    57.00961700
O     57.93461500    33.42640300    57.34599800
C     57.67693600    32.53773200    56.20080600
H     57.01901700    31.76376900    56.62407200
C     58.98648700    31.96184000    55.79317200
H     59.46393000    31.24298300    56.46049600
C     59.68310500    32.48267100    54.76815100
C     59.06432100    33.48370900    53.89317900
H     59.70236100    33.90454400    53.11096900
C     57.78125300    33.86565900    54.03153300
H     57.33218100    34.60235400    53.35662900
C     56.88979900    33.27109300    55.08618200
H     56.34719000    34.09064800    55.58588000
O     55.96286300    32.39770700    54.43466800
H     55.31084500    32.10952700    55.09277000
C     61.12320000    32.06212600    54.53420800
O     61.78496200    31.70232800    55.54338100
O     61.54107100    32.10651300    53.35273800
C     68.964400    25.165000    50.643200
O     70.148225    25.226776    50.246663
O     68.253116    24.137617    50.675759
H     68.506421    26.100850    50.995961
C     66.248300    34.565500    44.274500
O     67.432125    34.627276    43.877963
O     65.537016    33.538117    44.307059
H     65.790321    35.501350    44.627261
C     65.763300    25.119500    46.720000
O     66.947125    25.181276    46.323463
O     65.052016    24.092117    46.752559
H     65.305321    26.055350    47.072761
C     52.959200    32.249700    66.815300
N     53.109777    32.634920    65.551246
H     52.799260    33.297422    66.247500
H     53.305946    31.679882    65.814913
N     52.550301    33.122104    67.732149
H     52.746470    32.167066    67.995816
H     52.664649    33.414640    66.772228
N     53.217521    30.992076    67.162505
H     53.331870    31.284611    66.202584
H     52.907004    31.654578    67.858759
C     70.978400    32.592800    48.733600
O     72.162225    32.654576    48.337063
O     70.267116    31.565417    48.766159
H     70.520421    33.528650    49.086361
C     63.347400    22.159900    50.446800
O     64.531225    22.221676    50.050263
O     62.636116    21.132517    50.479359
H     62.889421    23.095750    50.799561
C     60.883500    24.597900    46.017200
O     62.067325    24.659676    45.620663
O     60.172216    23.570517    46.049759
H     60.425521    25.533750    46.369961
C     57.139900    28.724000    67.068600
N     57.290477    29.109220    65.804546
H     56.979960    29.771722    66.500800
H     57.486646    28.154182    66.068213
N     56.731001    29.596404    67.985449
H     56.927170    28.641366    68.249116
H     56.845349    29.888940    67.025528
N     57.398221    27.466376    67.415805
H     57.512570    27.758911    66.455884
H     57.087704    28.128878    68.112059
C     64.800300    29.742600    43.636400
O     65.984125    29.804376    43.239863
O     64.089016    28.715217    43.668959
H     64.342321    30.678450    43.989161
C     59.739700    33.902700    68.293700
N     59.890277    34.287920    67.029646
H     59.579760    34.950422    67.725900
H     60.086446    33.332882    67.293313
N     59.330801    34.775104    69.210549
H     59.526970    33.820066    69.474216
H     59.445149    35.067640    68.250628
N     59.998021    32.645076    68.640905
H     60.112370    32.937611    67.680984
H     59.687504    33.307578    69.337159
