82
shell8p8 K=10 +-1 net-free proxy+9.91
C     60.11193800    34.38396900    57.21013200
H     60.60719900    33.42993900    57.38460900
H     60.72469300    35.27181800    57.05919300
C     58.78057700    34.50353200    57.15195800
C     58.09218200    35.83426100    56.89335400
O     58.81246700    36.81821800    56.57878900
O     56.83954900    35.84891700    57.00961700
O     57.93461500    33.42640300    57.34599800
C     57.67693600    32.53773200    56.20080600
H     57.01901700    31.76376900    56.62407200
C     58.98648700    31.96184000    55.79317200
H     59.46393000    31.24298300    56.46049600
C     59.68310500    32.48267100    54.76815100
C     59.06432100    33.48370900    53.89317900
H     59.70236100    33.90454400    53.11096900
C     57.78125300    33.86565900    54.03153300
H     57.33218100    34.60235400    53.35662900
C     56.88979900    33.27109300    55.08618200
H     56.34719000    34.09064800    55.58588000
O     55.96286300    32.39770700    54.43466800
H     55.31084500    32.10952700    55.09277000
C     61.12320000    32.06212600    54.53420800
O     61.78496200    31.70232800    55.54338100
O     61.54107100    32.10651300    53.35273800
C     63.066100    29.763400    43.420700
O     64.249925    29.825176    43.024163
O     62.354816    28.736017    43.453259
H     62.608121    30.699250    43.773461
C     58.710800    26.506300    65.291400
N     58.861377    26.891520    64.027346
H     58.550860    27.554022    64.723600
H     59.057546    25.936482    64.291013
N     58.301901    27.378704    66.208249
H     58.498070    26.423666    66.471916
H     58.416249    27.671240    65.248328
N     58.969121    25.248676    65.638605
H     59.083470    25.541211    64.678684
H     58.658604    25.911178    66.334859
C     58.592300    24.281200    47.308600
O     59.776125    24.342976    46.912063
O     57.881016    23.253817    47.341159
H     58.134321    25.217050    47.661361
C     70.957100    27.505300    53.365900
O     72.140925    27.567076    52.969363
O     70.245816    26.477917    53.398459
H     70.499121    28.441150    53.718661
C     67.801600    24.002800    52.093400
O     68.985425    24.064576    51.696863
O     67.090316    22.975417    52.125959
H     67.343621    24.938650    52.446161
C     67.124800    32.650700    44.692200
O     68.308625    32.712476    44.295663
O     66.413516    31.623317    44.724759
H     66.666821    33.586550    45.044961
C     61.128900    33.145300    67.784600
N     61.279477    33.530520    66.520546
H     60.968960    34.193022    67.216800
H     61.475646    32.575482    66.784213
N     60.720001    34.017704    68.701449
H     60.916170    33.062666    68.965116
H     60.834349    34.310240    67.741528
N     61.387221    31.887676    68.131805
H     61.501570    32.180211    67.171884
H     61.076704    32.550178    68.828059
C     70.559600    34.378900    48.882800
O     71.743425    34.440676    48.486263
O     69.848316    33.351517    48.915359
H     70.101621    35.314750    49.235561
C     55.138800    30.683400    67.219000
N     55.289377    31.068620    65.954946
H     54.978860    31.731122    66.651200
H     55.485546    30.113582    66.218613
N     54.729901    31.555804    68.135849
H     54.926070    30.600766    68.399516
H     54.844249    31.848340    67.175928
N     55.397121    29.425776    67.566205
H     55.511470    29.718311    66.606284
H     55.086604    30.088278    68.262459
C     64.847700    24.201400    47.604800
O     66.031525    24.263176    47.208263
O     64.136416    23.174017    47.637359
H     64.389721    25.137250    47.957561
