70
shell14p0 K=10 +-1 net-free proxy+13.42
C     60.11193800    34.38396900    57.21013200
H     60.60719900    33.42993900    57.38460900
H     60.72469300    35.27181800    57.05919300
C     58.78057700    34.50353200    57.15195800
C     58.09218200    35.83426100    56.89335400
O     58.81246700    36.81821800    56.57878900
O     56.83954900    35.84891700    57.00961700
O     57.93461500    33.42640300    57.34599800
C     57.67693600    32.53773200    56.20080600
H     57.01901700    31.76376900    56.62407200
C     58.98648700    31.96184000    55.79317200
H     59.46393000    31.24298300    56.46049600
C     59.68310500    32.48267100    54.76815100
C     59.06432100    33.48370900    53.89317900
H     59.70236100    33.90454400    53.11096900
C     57.78125300    33.86565900    54.03153300
H     57.33218100    34.60235400    53.35662900
C     56.88979900    33.27109300    55.08618200
H     56.34719000    34.09064800    55.58588000
O     55.96286300    32.39770700    54.43466800
H     55.31084500    32.10952700    55.09277000
C     61.12320000    32.06212600    54.53420800
O     61.78496200    31.70232800    55.54338100
O     61.54107100    32.10651300    53.35273800
C     62.831100    25.752800    39.252200
O     64.014925    25.814576    38.855663
O     62.119816    24.725417    39.284759
H     62.373121    26.688650    39.604961
C     71.988500    25.660900    43.858900
O     73.172325    25.722676    43.462363
O     71.277216    24.633517    43.891459
H     71.530521    26.596750    44.211661
C     65.780200    31.508200    38.435900
O     66.964025    31.569976    38.039363
O     65.068916    30.480817    38.468459
H     65.322221    32.444050    38.788661
C     69.270800    21.288700    45.349400
O     70.454625    21.350476    44.952863
O     68.559516    20.261317    45.381959
H     68.812821    22.224550    45.702161
C     52.371100    31.265500    72.005400
N     52.521677    31.650720    70.741346
H     52.211160    32.313222    71.437600
H     52.717846    30.695682    71.005013
N     51.962201    32.137904    72.922249
H     52.158370    31.182866    73.185916
H     52.076549    32.430440    71.962328
N     52.629421    30.007876    72.352605
H     52.743770    30.300411    71.392684
H     52.318904    30.670378    73.048859
C     74.791500    29.628800    45.662400
O     75.975325    29.690576    45.265863
O     74.080216    28.601417    45.694959
H     74.333521    30.564650    46.015161
C     64.123600    21.884600    41.965400
O     65.307425    21.946376    41.568863
O     63.412316    20.857217    41.997959
H     63.665621    22.820450    42.318161
C     68.292800    26.223700    40.678700
O     69.476625    26.285476    40.282163
O     67.581516    25.196317    40.711259
H     67.834821    27.159550    41.031461
C     71.324000    30.674400    41.391300
O     72.507825    30.736176    40.994763
O     70.612716    29.647017    41.423859
H     70.866021    31.610250    41.744061
C     73.309300    22.907300    49.143600
O     74.493125    22.969076    48.747063
O     72.598016    21.879917    49.176159
H     72.851321    23.843150    49.496361
