88
shell7p0 K=10 +-1 net-free proxy+7.03
C     60.11193800    34.38396900    57.21013200
H     60.60719900    33.42993900    57.38460900
H     60.72469300    35.27181800    57.05919300
C     58.78057700    34.50353200    57.15195800
C     58.09218200    35.83426100    56.89335400
O     58.81246700    36.81821800    56.57878900
O     56.83954900    35.84891700    57.00961700
O     57.93461500    33.42640300    57.34599800
C     57.67693600    32.53773200    56.20080600
H     57.01901700    31.76376900    56.62407200
C     58.98648700    31.96184000    55.79317200
H     59.46393000    31.24298300    56.46049600
C     59.68310500    32.48267100    54.76815100
C     59.06432100    33.48370900    53.89317900
H     59.70236100    33.90454400    53.11096900
C     57.78125300    33.86565900    54.03153300
H     57.33218100    34.60235400    53.35662900
C     56.88979900    33.27109300    55.08618200
H     56.34719000    34.09064800    55.58588000
O     55.96286300    32.39770700    54.43466800
H     55.31084500    32.10952700    55.09277000
C     61.12320000    32.06212600    54.53420800
O     61.78496200    31.70232800    55.54338100
O     61.54107100    32.10651300    53.35273800
C     65.785100    30.631700    46.116700
O     66.968925    30.693476    45.720163
O     65.073816    29.604317    46.149259
H     65.327121    31.567550    46.469461
C     58.765300    25.018300    49.531000
O     59.949125    25.080076    49.134463
O     58.054016    23.990917    49.563559
H     58.307321    25.954150    49.883761
C     62.474300    29.933700    64.561700
N     62.624877    30.318920    63.297646
H     62.314360    30.981422    63.993900
H     62.821046    29.363882    63.561313
N     62.065401    30.806104    65.478549
H     62.261570    29.851066    65.742216
H     62.179749    31.098640    64.518628
N     62.732621    28.676076    64.908905
H     62.846970    28.968611    63.948984
H     62.422104    29.338578    65.605159
C     67.869200    26.316800    52.987300
O     69.053025    26.378576    52.590763
O     67.157916    25.289417    53.019859
H     67.411221    27.252650    53.340061
C     58.431000    36.173900    66.025900
N     58.581577    36.559120    64.761846
H     58.271060    37.221622    65.458100
H     58.777746    35.604082    65.025513
N     58.022101    37.046304    66.942749
H     58.218270    36.091266    67.206416
H     58.136449    37.338840    65.982828
N     58.689321    34.916276    66.373105
H     58.803670    35.208811    65.413184
H     58.378804    35.578778    67.069359
C     56.752400    30.349200    65.548900
N     56.902977    30.734420    64.284846
H     56.592460    31.396922    64.981100
H     57.099146    29.779382    64.548513
N     56.343501    31.221604    66.465749
H     56.539670    30.266566    66.729416
H     56.457849    31.514140    65.505828
N     57.010721    29.091576    65.896105
H     57.125070    29.384111    64.936184
H     56.700204    29.754078    66.592359
C     70.055200    31.936600    53.143100
O     71.239025    31.998376    52.746563
O     69.343916    30.909217    53.175659
H     69.597221    32.872450    53.495861
C     59.491300    30.037300    45.348100
O     60.675125    30.099076    44.951563
O     58.780016    29.009917    45.380659
H     59.033321    30.973150    45.700861
C     52.761100    33.051100    64.305300
N     52.911677    33.436320    63.041246
H     52.601160    34.098822    63.737500
H     53.107846    32.481282    63.304913
N     52.352201    33.923504    65.222149
H     52.548370    32.968466    65.485816
H     52.466549    34.216040    64.262228
N     53.019421    31.793476    64.652505
H     53.133770    32.086011    63.692584
H     52.708904    32.455978    65.348759
C     64.729600    25.919200    48.445000
O     65.913425    25.980976    48.048463
O     64.018316    24.891817    48.477559
H     64.271621    26.855050    48.797761
