82
shell7p7 TS-under-field
C     60.14190600    34.25017500    56.86750500
H     60.65410400    33.35229400    57.20242100
H     60.73860600    35.07435300    56.47491200
C     58.80287300    34.45194900    57.16141800
C     58.13069700    35.79868100    56.84307300
O     58.86276300    36.77666300    56.53446600
O     56.87734100    35.82963400    56.93983700
O     58.04533200    33.51170800    57.60013500
C     57.53567900    32.20862600    56.01945400
H     56.92805500    31.57263500    56.66681400
C     58.86068700    31.87524000    55.78984900
H     59.36035100    31.12725100    56.40326400
C     59.64119800    32.67145500    54.96010600
C     58.97535300    33.57937300    54.02371700
H     59.61208400    34.05213900    53.27111900
C     57.64453400    33.77154800    54.05277400
H     57.14874400    34.42947900    53.33266900
C     56.77153500    33.13738000    55.09626400
H     56.36648800    33.96180100    55.70835200
O     55.70405500    32.44082700    54.44502300
H     55.04194600    32.20048300    55.11214300
C     61.07068900    32.21901900    54.67969600
O     61.72429900    31.71851300    55.62834500
O     61.44865900    32.31879300    53.48933100
C     64.988400    23.569100    52.597200
O     66.172225    23.630876    52.200663
O     64.277116    22.541717    52.629759
H     64.530421    24.504950    52.949961
C     70.379300    29.882800    51.965700
O     71.563125    29.944576    51.569163
O     69.668016    28.855417    51.998259
H     69.921321    30.818650    52.318461
C     66.217100    26.537600    47.687600
O     67.400925    26.599376    47.291063
O     65.505816    25.510217    47.720159
H     65.759121    27.473450    48.040361
C     69.853600    34.711200    50.336300
O     71.037425    34.772976    49.939763
O     69.142316    33.683817    50.368859
H     69.395621    35.647050    50.689061
C     53.789100    33.238900    65.897400
N     53.939677    33.624120    64.633346
H     53.629160    34.286622    65.329600
H     54.135846    32.669082    64.897013
N     53.380201    34.111304    66.814249
H     53.576370    33.156266    67.077916
H     53.494549    34.403840    65.854328
N     54.047421    31.981276    66.244605
H     54.161770    32.273811    65.284684
H     53.736904    32.643778    66.940859
C     49.958400    33.581200    62.710400
N     50.108977    33.966420    61.446346
H     49.798460    34.628922    62.142600
H     50.305146    33.011382    61.710013
N     49.549501    34.453604    63.627249
H     49.745670    33.498566    63.890916
H     49.663849    34.746140    62.667328
N     50.216721    32.323576    63.057605
H     50.331070    32.616111    62.097684
H     49.906204    32.986078    63.753859
C     59.789400    24.692000    48.164500
O     60.973225    24.753776    47.767963
O     59.078116    23.664617    48.197059
H     59.331421    25.627850    48.517261
C     63.463800    32.239900    44.338000
O     64.647625    32.301676    43.941463
O     62.752516    31.212517    44.370559
H     63.005821    33.175750    44.690761
C     53.419800    28.249400    64.137500
N     53.570377    28.634620    62.873446
H     53.259860    29.297122    63.569700
H     53.766546    27.679582    63.137113
N     53.010901    29.121804    65.054349
H     53.207070    28.166766    65.318016
H     53.125249    29.414340    64.094428
N     53.678121    26.991776    64.484705
H     53.792470    27.284311    63.524784
H     53.367604    27.654278    65.180959
C     56.204600    30.650500    45.076300
O     57.388425    30.712276    44.679763
O     55.493316    29.623117    45.108859
H     55.746621    31.586350    45.429061
