88
shell7p8 K=10 +-1 net-free proxy+11.52
C     60.11193800    34.38396900    57.21013200
H     60.60719900    33.42993900    57.38460900
H     60.72469300    35.27181800    57.05919300
C     58.78057700    34.50353200    57.15195800
C     58.09218200    35.83426100    56.89335400
O     58.81246700    36.81821800    56.57878900
O     56.83954900    35.84891700    57.00961700
O     57.93461500    33.42640300    57.34599800
C     57.67693600    32.53773200    56.20080600
H     57.01901700    31.76376900    56.62407200
C     58.98648700    31.96184000    55.79317200
H     59.46393000    31.24298300    56.46049600
C     59.68310500    32.48267100    54.76815100
C     59.06432100    33.48370900    53.89317900
H     59.70236100    33.90454400    53.11096900
C     57.78125300    33.86565900    54.03153300
H     57.33218100    34.60235400    53.35662900
C     56.88979900    33.27109300    55.08618200
H     56.34719000    34.09064800    55.58588000
O     55.96286300    32.39770700    54.43466800
H     55.31084500    32.10952700    55.09277000
C     61.12320000    32.06212600    54.53420800
O     61.78496200    31.70232800    55.54338100
O     61.54107100    32.10651300    53.35273800
C     55.346500    24.988900    48.817300
O     56.530325    25.050676    48.420763
O     54.635216    23.961517    48.849859
H     54.888521    25.924750    49.170061
C     49.610400    27.395400    60.437600
N     49.760977    27.780620    59.173546
H     49.450460    28.443122    59.869800
H     49.957146    26.825582    59.437213
N     49.201501    28.267804    61.354449
H     49.397670    27.312766    61.618116
H     49.315849    28.560340    60.394528
N     49.868721    26.137776    60.784805
H     49.983070    26.430311    59.824884
H     49.558204    26.800278    61.481059
C     63.911200    25.572400    47.147400
O     65.095025    25.634176    46.750863
O     63.199916    24.545017    47.179959
H     63.453221    26.508250    47.500161
C     58.030000    43.799600    62.702400
N     58.180577    44.184820    61.438346
H     57.870060    44.847322    62.134600
H     58.376746    43.229782    61.702013
N     57.621101    44.672004    63.619249
H     57.817270    43.716966    63.882916
H     57.735449    44.964540    62.659328
N     58.288321    42.541976    63.049605
H     58.402670    42.834511    62.089684
H     57.977804    43.204478    63.745859
C     62.442000    33.859300    44.245100
O     63.625825    33.921076    43.848563
O     61.730716    32.831917    44.277659
H     61.984021    34.795150    44.597861
C     69.881900    27.171000    54.689900
O     71.065725    27.232776    54.293363
O     69.170616    26.143617    54.722459
H     69.423921    28.106850    55.042661
C     70.796000    30.775000    57.726600
O     71.979825    30.836776    57.330063
O     70.084716    29.747617    57.759159
H     70.338021    31.710850    58.079361
C     66.187700    39.148600    49.279800
O     67.371525    39.210376    48.883263
O     65.476416    38.121217    49.312359
H     65.729721    40.084450    49.632561
C     59.949300    24.872300    62.844000
N     60.099877    25.257520    61.579946
H     59.789360    25.920022    62.276200
H     60.296046    24.302482    61.843613
N     59.540401    25.744704    63.760849
H     59.736570    24.789666    64.024516
H     59.654749    26.037240    62.800928
N     60.207621    23.614676    63.191205
H     60.321970    23.907211    62.231284
H     59.897104    24.277178    63.887459
C     63.788500    30.565300    65.299400
N     63.939077    30.950520    64.035346
H     63.628560    31.613022    64.731600
H     64.135246    29.995482    64.299013
N     63.379601    31.437704    66.216249
H     63.575770    30.482666    66.479916
H     63.493949    31.730240    65.256328
N     64.046821    29.307676    65.646605
H     64.161170    29.600211    64.686684
H     63.736304    29.970178    66.342859
