100
shell8p3 K=10 +-1 net-free proxy+12.10
C     60.11193800    34.38396900    57.21013200
H     60.60719900    33.42993900    57.38460900
H     60.72469300    35.27181800    57.05919300
C     58.78057700    34.50353200    57.15195800
C     58.09218200    35.83426100    56.89335400
O     58.81246700    36.81821800    56.57878900
O     56.83954900    35.84891700    57.00961700
O     57.93461500    33.42640300    57.34599800
C     57.67693600    32.53773200    56.20080600
H     57.01901700    31.76376900    56.62407200
C     58.98648700    31.96184000    55.79317200
H     59.46393000    31.24298300    56.46049600
C     59.68310500    32.48267100    54.76815100
C     59.06432100    33.48370900    53.89317900
H     59.70236100    33.90454400    53.11096900
C     57.78125300    33.86565900    54.03153300
H     57.33218100    34.60235400    53.35662900
C     56.88979900    33.27109300    55.08618200
H     56.34719000    34.09064800    55.58588000
O     55.96286300    32.39770700    54.43466800
H     55.31084500    32.10952700    55.09277000
C     61.12320000    32.06212600    54.53420800
O     61.78496200    31.70232800    55.54338100
O     61.54107100    32.10651300    53.35273800
C     64.952400    26.524100    63.310100
N     65.102977    26.909320    62.046046
H     64.792460    27.571822    62.742300
H     65.299146    25.954282    62.309713
N     64.543501    27.396504    64.226949
H     64.739670    26.441466    64.490616
H     64.657849    27.689040    63.267028
N     65.210721    25.266476    63.657305
H     65.325070    25.559011    62.697384
H     64.900204    25.928978    64.353559
C     45.646700    32.291100    53.564800
N     45.797277    32.676320    52.300746
H     45.486760    33.338822    52.997000
H     45.993446    31.721282    52.564413
N     45.237801    33.163504    54.481649
H     45.433970    32.208466    54.745316
H     45.352149    33.456040    53.521728
N     45.905021    31.033476    53.912005
H     46.019370    31.326011    52.952084
H     45.594504    31.695978    54.608259
C     58.046400    35.268500    67.565100
N     58.196977    35.653720    66.301046
H     57.886460    36.316222    66.997300
H     58.393146    34.698682    66.564713
N     57.637501    36.140904    68.481949
H     57.833670    35.185866    68.745616
H     57.751849    36.433440    67.522028
N     58.304721    34.010876    67.912305
H     58.419070    34.303411    66.952384
H     57.994204    34.673378    68.608559
C     63.480000    35.970200    66.489800
N     63.630577    36.355420    65.225746
H     63.320060    37.017922    65.922000
H     63.826746    35.400382    65.489413
N     63.071101    36.842604    67.406649
H     63.267270    35.887566    67.670316
H     63.185449    37.135140    66.446728
N     63.738321    34.712576    66.837005
H     63.852670    35.005111    65.877084
H     63.427804    35.375078    67.533259
C     56.375000    23.319700    50.714800
O     57.558825    23.381476    50.318263
O     55.663716    22.292317    50.747359
H     55.917021    24.255550    51.067561
C     51.963100    43.566900    60.622700
N     52.113677    43.952120    59.358646
H     51.803160    44.614622    60.054900
H     52.309846    42.997082    59.622313
N     51.554201    44.439304    61.539549
H     51.750370    43.484266    61.803216
H     51.668549    44.731840    60.579628
N     52.221421    42.309276    60.969905
H     52.335770    42.601811    60.009984
H     51.910904    42.971778    61.666159
C     56.819000    30.528400    67.047900
N     56.969577    30.913620    65.783846
H     56.659060    31.576122    66.480100
H     57.165746    29.958582    66.047513
N     56.410101    31.400804    67.964749
H     56.606270    30.445766    68.228416
H     56.524449    31.693340    67.004828
N     57.077321    29.270776    67.395105
H     57.191670    29.563311    66.435184
H     56.766804    29.933278    68.091359
C     69.268200    37.499800    50.589100
O     70.452025    37.561576    50.192563
O     68.556916    36.472417    50.621659
H     68.810221    38.435650    50.941861
C     64.928800    27.907200    45.149500
O     66.112625    27.968976    44.752963
O     64.217516    26.879817    45.182059
H     64.470821    28.843050    45.502261
C     55.618400    34.129200    43.787600
O     56.802225    34.190976    43.391063
O     54.907116    33.101817    43.820159
H     55.160421    35.065050    44.140361
