82
shell8p7 K=10 +-1 net-free proxy+10.29
C     60.11193800    34.38396900    57.21013200
H     60.60719900    33.42993900    57.38460900
H     60.72469300    35.27181800    57.05919300
C     58.78057700    34.50353200    57.15195800
C     58.09218200    35.83426100    56.89335400
O     58.81246700    36.81821800    56.57878900
O     56.83954900    35.84891700    57.00961700
O     57.93461500    33.42640300    57.34599800
C     57.67693600    32.53773200    56.20080600
H     57.01901700    31.76376900    56.62407200
C     58.98648700    31.96184000    55.79317200
H     59.46393000    31.24298300    56.46049600
C     59.68310500    32.48267100    54.76815100
C     59.06432100    33.48370900    53.89317900
H     59.70236100    33.90454400    53.11096900
C     57.78125300    33.86565900    54.03153300
H     57.33218100    34.60235400    53.35662900
C     56.88979900    33.27109300    55.08618200
H     56.34719000    34.09064800    55.58588000
O     55.96286300    32.39770700    54.43466800
H     55.31084500    32.10952700    55.09277000
C     61.12320000    32.06212600    54.53420800
O     61.78496200    31.70232800    55.54338100
O     61.54107100    32.10651300    53.35273800
C     52.012100    36.105500    66.012500
N     52.162677    36.490720    64.748446
H     51.852160    37.153222    65.444700
H     52.358846    35.535682    65.012113
N     51.603201    36.977904    66.929349
H     51.799370    36.022866    67.193016
H     51.717549    37.270440    65.969428
N     52.270421    34.847876    66.359705
H     52.384770    35.140411    65.399784
H     51.959904    35.510378    67.055959
C     70.392900    30.706300    48.445400
O     71.576725    30.768076    48.048863
O     69.681616    29.678917    48.477959
H     69.934921    31.642150    48.798161
C     71.859300    31.249500    53.897700
O     73.043125    31.311276    53.501163
O     71.148016    30.222117    53.930259
H     71.401321    32.185350    54.250461
C     62.167700    36.737300    67.127700
N     62.318277    37.122520    65.863646
H     62.007760    37.785022    66.559900
H     62.514446    36.167482    66.127313
N     61.758801    37.609704    68.044549
H     61.954970    36.654666    68.308216
H     61.873149    37.902240    67.084628
N     62.426021    35.479676    67.474905
H     62.540370    35.772211    66.514984
H     62.115504    36.142178    68.171159
C     61.383400    22.922700    48.874600
O     62.567225    22.984476    48.478063
O     60.672116    21.895317    48.907159
H     60.925421    23.858550    49.227361
C     57.797700    31.864000    43.562800
O     58.981525    31.925776    43.166263
O     57.086416    30.836617    43.595359
H     57.339721    32.799850    43.915561
C     63.938100    31.025000    43.478900
O     65.121925    31.086776    43.082363
O     63.226816    29.997617    43.511459
H     63.480121    31.960850    43.831661
C     67.383700    34.535500    45.329100
O     68.567525    34.597276    44.932563
O     66.672416    33.508117    45.361659
H     66.925721    35.471350    45.681861
C     53.353000    29.728100    65.878600
N     53.503577    30.113320    64.614546
H     53.193060    30.775822    65.310800
H     53.699746    29.158282    64.878213
N     52.944101    30.600504    66.795449
H     53.140270    29.645466    67.059116
H     53.058449    30.893040    65.835528
N     53.611321    28.470476    66.225805
H     53.725670    28.763011    65.265884
H     53.300804    29.132978    66.922059
C     66.534700    23.013400    53.022700
O     67.718525    23.075176    52.626163
O     65.823416    21.986017    53.055259
H     66.076721    23.949250    53.375461
