112
shell7p5 TS-under-field
C     60.14190600    34.25017500    56.86750500
H     60.65410400    33.35229400    57.20242100
H     60.73860600    35.07435300    56.47491200
C     58.80287300    34.45194900    57.16141800
C     58.13069700    35.79868100    56.84307300
O     58.86276300    36.77666300    56.53446600
O     56.87734100    35.82963400    56.93983700
O     58.04533200    33.51170800    57.60013500
C     57.53567900    32.20862600    56.01945400
H     56.92805500    31.57263500    56.66681400
C     58.86068700    31.87524000    55.78984900
H     59.36035100    31.12725100    56.40326400
C     59.64119800    32.67145500    54.96010600
C     58.97535300    33.57937300    54.02371700
H     59.61208400    34.05213900    53.27111900
C     57.64453400    33.77154800    54.05277400
H     57.14874400    34.42947900    53.33266900
C     56.77153500    33.13738000    55.09626400
H     56.36648800    33.96180100    55.70835200
O     55.70405500    32.44082700    54.44502300
H     55.04194600    32.20048300    55.11214300
C     61.07068900    32.21901900    54.67969600
O     61.72429900    31.71851300    55.62834500
O     61.44865900    32.31879300    53.48933100
C     50.378100    37.988500    62.924700
N     50.528677    38.373720    61.660646
H     50.218160    39.036222    62.356900
H     50.724846    37.418682    61.924313
N     49.969201    38.860904    63.841549
H     50.165370    37.905866    64.105216
H     50.083549    39.153440    62.881628
N     50.636421    36.730876    63.271905
H     50.750770    37.023411    62.311984
H     50.325904    37.393378    63.968159
C     67.403500    34.430500    62.817600
N     67.554077    34.815720    61.553546
H     67.243560    35.478222    62.249800
H     67.750246    33.860682    61.817213
N     66.994601    35.302904    63.734449
H     67.190770    34.347866    63.998116
H     67.108949    35.595440    62.774528
N     67.661821    33.172876    63.164805
H     67.776170    33.465411    62.204884
H     67.351304    33.835378    63.861059
C     58.348300    39.525600    65.315900
N     58.498877    39.910820    64.051846
H     58.188360    40.573322    64.748100
H     58.695046    38.955782    64.315513
N     57.939401    40.398004    66.232749
H     58.135570    39.442966    66.496416
H     58.053749    40.690540    65.272828
N     58.606621    38.267976    65.663105
H     58.720970    38.560511    64.703184
H     58.296104    38.930478    66.359359
C     48.057300    36.297400    59.007700
N     48.207877    36.682620    57.743646
H     47.897360    37.345122    58.439900
H     48.404046    35.727582    58.007313
N     47.648401    37.169804    59.924549
H     47.844570    36.214766    60.188216
H     47.762749    37.462340    58.964628
N     48.315621    35.039776    59.354905
H     48.429970    35.332311    58.394984
H     48.005104    35.702278    60.051159
C     68.683100    34.685500    48.489100
O     69.866925    34.747276    48.092563
O     67.971816    33.658117    48.521659
H     68.225121    35.621350    48.841861
C     57.744000    26.200800    63.460100
N     57.894577    26.586020    62.196046
H     57.584060    27.248522    62.892300
H     58.090746    25.630982    62.459713
N     57.335101    27.073204    64.376949
H     57.531270    26.118166    64.640616
H     57.449449    27.365740    63.417028
N     58.002321    24.943176    63.807305
H     58.116670    25.235711    62.847384
H     57.691804    25.605678    64.503559
C     69.200800    27.655200    51.669800
O     70.384625    27.716976    51.273263
O     68.489516    26.627817    51.702359
H     68.742821    28.591050    52.022561
C     47.377300    31.191000    59.099600
N     47.527877    31.576220    57.835546
H     47.217360    32.238722    58.531800
H     47.724046    30.621182    58.099213
N     46.968401    32.063404    60.016449
H     47.164570    31.108366    60.280116
H     47.082749    32.355940    59.056528
N     47.635621    29.933376    59.446805
H     47.749970    30.225911    58.486884
H     47.325104    30.595878    60.143059
C     50.038900    25.860300    58.338000
N     50.189477    26.245520    57.073946
H     49.878960    26.908022    57.770200
H     50.385646    25.290482    57.337613
N     49.630001    26.732704    59.254849
H     49.826170    25.777666    59.518516
H     49.744349    27.025240    58.294928
N     50.297221    24.602676    58.685205
H     50.411570    24.895211    57.725284
H     49.986704    25.265178    59.381459
C     56.691400    33.236600    66.735600
N     56.841977    33.621820    65.471546
H     56.531460    34.284322    66.167800
H     57.038146    32.666782    65.735213
N     56.282501    34.109004    67.652449
H     56.478670    33.153966    67.916116
H     56.396849    34.401540    66.692528
N     56.949721    31.978976    67.082805
H     57.064070    32.271511    66.122884
H     56.639204    32.641478    67.779059
