70
shell14p0 TS-under-field
C     60.14190600    34.25017500    56.86750500
H     60.65410400    33.35229400    57.20242100
H     60.73860600    35.07435300    56.47491200
C     58.80287300    34.45194900    57.16141800
C     58.13069700    35.79868100    56.84307300
O     58.86276300    36.77666300    56.53446600
O     56.87734100    35.82963400    56.93983700
O     58.04533200    33.51170800    57.60013500
C     57.53567900    32.20862600    56.01945400
H     56.92805500    31.57263500    56.66681400
C     58.86068700    31.87524000    55.78984900
H     59.36035100    31.12725100    56.40326400
C     59.64119800    32.67145500    54.96010600
C     58.97535300    33.57937300    54.02371700
H     59.61208400    34.05213900    53.27111900
C     57.64453400    33.77154800    54.05277400
H     57.14874400    34.42947900    53.33266900
C     56.77153500    33.13738000    55.09626400
H     56.36648800    33.96180100    55.70835200
O     55.70405500    32.44082700    54.44502300
H     55.04194600    32.20048300    55.11214300
C     61.07068900    32.21901900    54.67969600
O     61.72429900    31.71851300    55.62834500
O     61.44865900    32.31879300    53.48933100
C     62.831100    25.752800    39.252200
O     64.014925    25.814576    38.855663
O     62.119816    24.725417    39.284759
H     62.373121    26.688650    39.604961
C     71.988500    25.660900    43.858900
O     73.172325    25.722676    43.462363
O     71.277216    24.633517    43.891459
H     71.530521    26.596750    44.211661
C     65.780200    31.508200    38.435900
O     66.964025    31.569976    38.039363
O     65.068916    30.480817    38.468459
H     65.322221    32.444050    38.788661
C     69.270800    21.288700    45.349400
O     70.454625    21.350476    44.952863
O     68.559516    20.261317    45.381959
H     68.812821    22.224550    45.702161
C     52.371100    31.265500    72.005400
N     52.521677    31.650720    70.741346
H     52.211160    32.313222    71.437600
H     52.717846    30.695682    71.005013
N     51.962201    32.137904    72.922249
H     52.158370    31.182866    73.185916
H     52.076549    32.430440    71.962328
N     52.629421    30.007876    72.352605
H     52.743770    30.300411    71.392684
H     52.318904    30.670378    73.048859
C     74.791500    29.628800    45.662400
O     75.975325    29.690576    45.265863
O     74.080216    28.601417    45.694959
H     74.333521    30.564650    46.015161
C     64.123600    21.884600    41.965400
O     65.307425    21.946376    41.568863
O     63.412316    20.857217    41.997959
H     63.665621    22.820450    42.318161
C     68.292800    26.223700    40.678700
O     69.476625    26.285476    40.282163
O     67.581516    25.196317    40.711259
H     67.834821    27.159550    41.031461
C     71.324000    30.674400    41.391300
O     72.507825    30.736176    40.994763
O     70.612716    29.647017    41.423859
H     70.866021    31.610250    41.744061
C     73.309300    22.907300    49.143600
O     74.493125    22.969076    48.747063
O     72.598016    21.879917    49.176159
H     72.851321    23.843150    49.496361
