100
shell3p0 TS-under-field
C     60.14190600    34.25017500    56.86750500
H     60.65410400    33.35229400    57.20242100
H     60.73860600    35.07435300    56.47491200
C     58.80287300    34.45194900    57.16141800
C     58.13069700    35.79868100    56.84307300
O     58.86276300    36.77666300    56.53446600
O     56.87734100    35.82963400    56.93983700
O     58.04533200    33.51170800    57.60013500
C     57.53567900    32.20862600    56.01945400
H     56.92805500    31.57263500    56.66681400
C     58.86068700    31.87524000    55.78984900
H     59.36035100    31.12725100    56.40326400
C     59.64119800    32.67145500    54.96010600
C     58.97535300    33.57937300    54.02371700
H     59.61208400    34.05213900    53.27111900
C     57.64453400    33.77154800    54.05277400
H     57.14874400    34.42947900    53.33266900
C     56.77153500    33.13738000    55.09626400
H     56.36648800    33.96180100    55.70835200
O     55.70405500    32.44082700    54.44502300
H     55.04194600    32.20048300    55.11214300
C     61.07068900    32.21901900    54.67969600
O     61.72429900    31.71851300    55.62834500
O     61.44865900    32.31879300    53.48933100
C     65.994700    32.644900    54.169900
O     67.178525    32.706676    53.773363
O     65.283416    31.617517    54.202459
H     65.536721    33.580750    54.522661
C     55.593200    27.544300    57.802000
N     55.743777    27.929520    56.537946
H     55.433260    28.592022    57.234200
H     55.939946    26.974482    56.801613
N     55.184301    28.416704    58.718849
H     55.380470    27.461666    58.982516
H     55.298649    28.709240    57.758928
N     55.851521    26.286676    58.149205
H     55.965870    26.579211    57.189284
H     55.541004    26.949178    58.845459
C     61.694700    28.822000    59.133700
N     61.845277    29.207220    57.869646
H     61.534760    29.869722    58.565900
H     62.041446    28.252182    58.133313
N     61.285801    29.694404    60.050549
H     61.481970    28.739366    60.314216
H     61.400149    29.986940    59.090628
N     61.953021    27.564376    59.480905
H     62.067370    27.856911    58.520984
H     61.642504    28.226878    60.177159
C     59.045200    31.800800    61.902700
N     59.195777    32.186020    60.638646
H     58.885260    32.848522    61.334900
H     59.391946    31.230982    60.902313
N     58.636301    32.673204    62.819549
H     58.832470    31.718166    63.083216
H     58.750649    32.965740    61.859628
N     59.303521    30.543176    62.249905
H     59.417870    30.835711    61.289984
H     58.993004    31.205678    62.946159
C     59.043800    30.761100    49.838200
O     60.227625    30.822876    49.441663
O     58.332516    29.733717    49.870759
H     58.585821    31.696950    50.190961
C     61.338500    27.400500    54.008200
O     62.522325    27.462276    53.611663
O     60.627216    26.373117    54.040759
H     60.880521    28.336350    54.360961
C     64.196300    29.761900    50.550900
O     65.380125    29.823676    50.154363
O     63.485016    28.734517    50.583459
H     63.738321    30.697750    50.903661
C     54.516600    31.616000    60.099600
N     54.667177    32.001220    58.835546
H     54.356660    32.663722    59.531800
H     54.863346    31.046182    59.099213
N     54.107701    32.488404    61.016449
H     54.303870    31.533366    61.280116
H     54.222049    32.780940    60.056528
N     54.774921    30.358376    60.446805
H     54.889270    30.650911    59.486884
H     54.464404    31.020878    61.143059
C     62.925600    35.910900    60.643500
N     63.076177    36.296120    59.379446
H     62.765660    36.958622    60.075700
H     63.272346    35.341082    59.643113
N     62.516701    36.783304    61.560349
H     62.712870    35.828266    61.824016
H     62.631049    37.075840    60.600428
N     63.183921    34.653276    60.990705
H     63.298270    34.945811    60.030784
H     62.873404    35.315778    61.686959
C     55.075700    37.014700    61.000400
N     55.226277    37.399920    59.736346
H     54.915760    38.062422    60.432600
H     55.422446    36.444882    60.000013
N     54.666801    37.887104    61.917249
H     54.862970    36.932066    62.180916
H     54.781149    38.179640    60.957328
N     55.334021    35.757076    61.347605
H     55.448370    36.049611    60.387684
H     55.023504    36.419578    62.043859
