88
shell8p6 K=10 +-1 net-free proxy+10.19
C     60.11193800    34.38396900    57.21013200
H     60.60719900    33.42993900    57.38460900
H     60.72469300    35.27181800    57.05919300
C     58.78057700    34.50353200    57.15195800
C     58.09218200    35.83426100    56.89335400
O     58.81246700    36.81821800    56.57878900
O     56.83954900    35.84891700    57.00961700
O     57.93461500    33.42640300    57.34599800
C     57.67693600    32.53773200    56.20080600
H     57.01901700    31.76376900    56.62407200
C     58.98648700    31.96184000    55.79317200
H     59.46393000    31.24298300    56.46049600
C     59.68310500    32.48267100    54.76815100
C     59.06432100    33.48370900    53.89317900
H     59.70236100    33.90454400    53.11096900
C     57.78125300    33.86565900    54.03153300
H     57.33218100    34.60235400    53.35662900
C     56.88979900    33.27109300    55.08618200
H     56.34719000    34.09064800    55.58588000
O     55.96286300    32.39770700    54.43466800
H     55.31084500    32.10952700    55.09277000
C     61.12320000    32.06212600    54.53420800
O     61.78496200    31.70232800    55.54338100
O     61.54107100    32.10651300    53.35273800
C     61.249900    27.550700    65.370700
N     61.400477    27.935920    64.106646
H     61.089960    28.598422    64.802900
H     61.596646    26.980882    64.370313
N     60.841001    28.423104    66.287549
H     61.037170    27.468066    66.551216
H     60.955349    28.715640    65.327628
N     61.508221    26.293076    65.717905
H     61.622570    26.585611    64.757984
H     61.197704    26.955578    66.414159
C     66.703700    27.242900    46.135800
O     67.887525    27.304676    45.739263
O     65.992416    26.215517    46.168359
H     66.245721    28.178750    46.488561
C     68.420800    36.088800    47.093200
O     69.604625    36.150576    46.696663
O     67.709516    35.061417    47.125759
H     67.962821    37.024650    47.445961
C     70.072500    28.710100    49.102400
O     71.256325    28.771876    48.705863
O     69.361216    27.682717    49.134959
H     69.614521    29.645950    49.455161
C     66.427700    22.764900    54.560400
O     67.611525    22.826676    54.163863
O     65.716416    21.737517    54.592959
H     65.969721    23.700750    54.913161
C     60.066100    32.733700    43.351000
O     61.249925    32.795476    42.954463
O     59.354816    31.706317    43.383559
H     59.608121    33.669550    43.703761
C     50.059200    33.814200    64.239900
N     50.209777    34.199420    62.975846
H     49.899260    34.861922    63.672100
H     50.405946    33.244382    63.239513
N     49.650301    34.686604    65.156749
H     49.846470    33.731566    65.420416
H     49.764649    34.979140    64.196828
N     50.317521    32.556576    64.587105
H     50.431870    32.849111    63.627184
H     50.007004    33.219078    65.283359
C     59.636600    32.417400    67.823100
N     59.787177    32.802620    66.559046
H     59.476660    33.465122    67.255300
H     59.983346    31.847582    66.822713
N     59.227701    33.289804    68.739949
H     59.423870    32.334766    69.003616
H     59.342049    33.582340    67.780028
N     59.894921    31.159776    68.170305
H     60.009270    31.452311    67.210384
H     59.584404    31.822278    68.866559
C     58.764100    25.404900    46.299300
O     59.947925    25.466676    45.902763
O     58.052816    24.377517    46.331859
H     58.306121    26.340750    46.652061
C     52.452900    26.901100    64.025300
N     52.603477    27.286320    62.761246
H     52.292960    27.948822    63.457500
H     52.799646    26.331282    63.024913
N     52.044001    27.773504    64.942149
H     52.240170    26.818466    65.205816
H     52.158349    28.066040    63.982228
N     52.711221    25.643476    64.372505
H     52.825570    25.936011    63.412584
H     52.400704    26.305978    65.068759
