100
shell8p2 TS-under-field
C     60.14190600    34.25017500    56.86750500
H     60.65410400    33.35229400    57.20242100
H     60.73860600    35.07435300    56.47491200
C     58.80287300    34.45194900    57.16141800
C     58.13069700    35.79868100    56.84307300
O     58.86276300    36.77666300    56.53446600
O     56.87734100    35.82963400    56.93983700
O     58.04533200    33.51170800    57.60013500
C     57.53567900    32.20862600    56.01945400
H     56.92805500    31.57263500    56.66681400
C     58.86068700    31.87524000    55.78984900
H     59.36035100    31.12725100    56.40326400
C     59.64119800    32.67145500    54.96010600
C     58.97535300    33.57937300    54.02371700
H     59.61208400    34.05213900    53.27111900
C     57.64453400    33.77154800    54.05277400
H     57.14874400    34.42947900    53.33266900
C     56.77153500    33.13738000    55.09626400
H     56.36648800    33.96180100    55.70835200
O     55.70405500    32.44082700    54.44502300
H     55.04194600    32.20048300    55.11214300
C     61.07068900    32.21901900    54.67969600
O     61.72429900    31.71851300    55.62834500
O     61.44865900    32.31879300    53.48933100
C     67.061100    31.218900    45.404000
O     68.244925    31.280676    45.007463
O     66.349816    30.191517    45.436559
H     66.603121    32.154750    45.756761
C     60.949200    22.427800    52.269800
O     62.133025    22.489576    51.873263
O     60.237916    21.400417    52.302359
H     60.491221    23.363650    52.622561
C     60.290000    45.745900    60.120100
N     60.440577    46.131120    58.856046
H     60.130060    46.793622    59.552300
H     60.636746    45.176082    59.119713
N     59.881101    46.618304    61.036949
H     60.077270    45.663266    61.300616
H     59.995449    46.910840    60.077028
N     60.548321    44.488276    60.467305
H     60.662670    44.780811    59.507384
H     60.237804    45.150778    61.163559
C     65.942300    32.413200    65.053700
N     66.092877    32.798420    63.789646
H     65.782360    33.460922    64.485900
H     66.289046    31.843382    64.053313
N     65.533401    33.285604    65.970549
H     65.729570    32.330566    66.234216
H     65.647749    33.578140    65.010628
N     66.200621    31.155576    65.400905
H     66.314970    31.448111    64.440984
H     65.890104    31.818078    66.097159
C     60.365600    26.373700    64.449400
N     60.516177    26.758920    63.185346
H     60.205660    27.421422    63.881600
H     60.712346    25.803882    63.449013
N     59.956701    27.246104    65.366249
H     60.152870    26.291066    65.629916
H     60.071049    27.538640    64.406328
N     60.623921    25.116076    64.796605
H     60.738270    25.408611    63.836684
H     60.313404    25.778578    65.492859
C     54.338300    23.349800    51.279400
O     55.522125    23.411576    50.882863
O     53.627016    22.322417    51.311959
H     53.880321    24.285650    51.632161
C     54.362700    35.337100    66.606100
N     54.513277    35.722320    65.342046
H     54.202760    36.384822    66.038300
H     54.709446    34.767282    65.605713
N     53.953801    36.209504    67.522949
H     54.149970    35.254466    67.786616
H     54.068149    36.502040    66.563028
N     54.621021    34.079476    66.953305
H     54.735370    34.372011    65.993384
H     54.310504    34.741978    67.649559
C     50.320100    31.377600    63.346900
N     50.470677    31.762820    62.082846
H     50.160160    32.425322    62.779100
H     50.666846    30.807782    62.346513
N     49.911201    32.250004    64.263749
H     50.107370    31.294966    64.527416
H     50.025549    32.542540    63.303828
N     50.578421    30.119976    63.694105
H     50.692770    30.412511    62.734184
H     50.267904    30.782478    64.390359
C     48.156900    38.372800    60.572900
N     48.307477    38.758020    59.308846
H     47.996960    39.420522    60.005100
H     48.503646    37.802982    59.572513
N     47.748001    39.245204    61.489749
H     47.944170    38.290166    61.753416
H     47.862349    39.537740    60.529828
N     48.415221    37.115176    60.920105
H     48.529570    37.407711    59.960184
H     48.104704    37.777678    61.616359
C     56.269500    32.152600    44.039700
O     57.453325    32.214376    43.643163
O     55.558216    31.125217    44.072259
H     55.811521    33.088450    44.392461
