82
shell11p0 K=10 +-1 net-free proxy+11.62
C     60.11193800    34.38396900    57.21013200
H     60.60719900    33.42993900    57.38460900
H     60.72469300    35.27181800    57.05919300
C     58.78057700    34.50353200    57.15195800
C     58.09218200    35.83426100    56.89335400
O     58.81246700    36.81821800    56.57878900
O     56.83954900    35.84891700    57.00961700
O     57.93461500    33.42640300    57.34599800
C     57.67693600    32.53773200    56.20080600
H     57.01901700    31.76376900    56.62407200
C     58.98648700    31.96184000    55.79317200
H     59.46393000    31.24298300    56.46049600
C     59.68310500    32.48267100    54.76815100
C     59.06432100    33.48370900    53.89317900
H     59.70236100    33.90454400    53.11096900
C     57.78125300    33.86565900    54.03153300
H     57.33218100    34.60235400    53.35662900
C     56.88979900    33.27109300    55.08618200
H     56.34719000    34.09064800    55.58588000
O     55.96286300    32.39770700    54.43466800
H     55.31084500    32.10952700    55.09277000
C     61.12320000    32.06212600    54.53420800
O     61.78496200    31.70232800    55.54338100
O     61.54107100    32.10651300    53.35273800
C     55.733000    32.771500    70.090500
N     55.883577    33.156720    68.826446
H     55.573060    33.819222    69.522700
H     56.079746    32.201682    69.090113
N     55.324101    33.643904    71.007349
H     55.520270    32.688866    71.271016
H     55.438449    33.936440    70.047428
N     55.991321    31.513876    70.437705
H     56.105670    31.806411    69.477784
H     55.680804    32.176378    71.133959
C     51.955600    29.352900    67.747100
N     52.106177    29.738120    66.483046
H     51.795660    30.400622    67.179300
H     52.302346    28.783082    66.746713
N     51.546701    30.225304    68.663949
H     51.742870    29.270266    68.927616
H     51.661049    30.517840    67.704028
N     52.213921    28.095276    68.094305
H     52.328270    28.387811    67.134384
H     51.903404    28.757778    68.790559
C     66.681300    28.989600    42.371500
O     67.865125    29.051376    41.974963
O     65.970016    27.962217    42.404059
H     66.223321    29.925450    42.724261
C     70.246000    31.861600    44.360200
O     71.429825    31.923376    43.963663
O     69.534716    30.834217    44.392759
H     69.788021    32.797450    44.712961
C     62.529600    24.885900    43.173700
O     63.713425    24.947676    42.777163
O     61.818316    23.858517    43.206259
H     62.071621    25.821750    43.526461
C     64.146300    21.167300    47.852900
O     65.330125    21.229076    47.456363
O     63.435016    20.139917    47.885459
H     63.688321    22.103150    48.205661
C     66.965200    24.446200    45.069900
O     68.149025    24.507976    44.673363
O     66.253916    23.418817    45.102459
H     66.507221    25.382050    45.422661
C     69.190400    22.828400    49.872500
O     70.374225    22.890176    49.475963
O     68.479116    21.801017    49.905059
H     68.732421    23.764250    50.225261
C     71.854900    27.727200    47.770600
O     73.038725    27.788976    47.374063
O     71.143616    26.699817    47.803159
H     71.396921    28.663050    48.123361
C     56.370300    28.057200    68.879200
N     56.520877    28.442420    67.615146
H     56.210360    29.104922    68.311400
H     56.717046    27.487382    67.878813
N     55.961401    28.929604    69.796049
H     56.157570    27.974566    70.059716
H     56.075749    29.222140    68.836128
N     56.628621    26.799576    69.226405
H     56.742970    27.092111    68.266484
H     56.318104    27.462078    69.922659
