82
shell8p7 TS-under-field
C     60.14190600    34.25017500    56.86750500
H     60.65410400    33.35229400    57.20242100
H     60.73860600    35.07435300    56.47491200
C     58.80287300    34.45194900    57.16141800
C     58.13069700    35.79868100    56.84307300
O     58.86276300    36.77666300    56.53446600
O     56.87734100    35.82963400    56.93983700
O     58.04533200    33.51170800    57.60013500
C     57.53567900    32.20862600    56.01945400
H     56.92805500    31.57263500    56.66681400
C     58.86068700    31.87524000    55.78984900
H     59.36035100    31.12725100    56.40326400
C     59.64119800    32.67145500    54.96010600
C     58.97535300    33.57937300    54.02371700
H     59.61208400    34.05213900    53.27111900
C     57.64453400    33.77154800    54.05277400
H     57.14874400    34.42947900    53.33266900
C     56.77153500    33.13738000    55.09626400
H     56.36648800    33.96180100    55.70835200
O     55.70405500    32.44082700    54.44502300
H     55.04194600    32.20048300    55.11214300
C     61.07068900    32.21901900    54.67969600
O     61.72429900    31.71851300    55.62834500
O     61.44865900    32.31879300    53.48933100
C     52.012100    36.105500    66.012500
N     52.162677    36.490720    64.748446
H     51.852160    37.153222    65.444700
H     52.358846    35.535682    65.012113
N     51.603201    36.977904    66.929349
H     51.799370    36.022866    67.193016
H     51.717549    37.270440    65.969428
N     52.270421    34.847876    66.359705
H     52.384770    35.140411    65.399784
H     51.959904    35.510378    67.055959
C     70.392900    30.706300    48.445400
O     71.576725    30.768076    48.048863
O     69.681616    29.678917    48.477959
H     69.934921    31.642150    48.798161
C     71.859300    31.249500    53.897700
O     73.043125    31.311276    53.501163
O     71.148016    30.222117    53.930259
H     71.401321    32.185350    54.250461
C     62.167700    36.737300    67.127700
N     62.318277    37.122520    65.863646
H     62.007760    37.785022    66.559900
H     62.514446    36.167482    66.127313
N     61.758801    37.609704    68.044549
H     61.954970    36.654666    68.308216
H     61.873149    37.902240    67.084628
N     62.426021    35.479676    67.474905
H     62.540370    35.772211    66.514984
H     62.115504    36.142178    68.171159
C     61.383400    22.922700    48.874600
O     62.567225    22.984476    48.478063
O     60.672116    21.895317    48.907159
H     60.925421    23.858550    49.227361
C     57.797700    31.864000    43.562800
O     58.981525    31.925776    43.166263
O     57.086416    30.836617    43.595359
H     57.339721    32.799850    43.915561
C     63.938100    31.025000    43.478900
O     65.121925    31.086776    43.082363
O     63.226816    29.997617    43.511459
H     63.480121    31.960850    43.831661
C     67.383700    34.535500    45.329100
O     68.567525    34.597276    44.932563
O     66.672416    33.508117    45.361659
H     66.925721    35.471350    45.681861
C     53.353000    29.728100    65.878600
N     53.503577    30.113320    64.614546
H     53.193060    30.775822    65.310800
H     53.699746    29.158282    64.878213
N     52.944101    30.600504    66.795449
H     53.140270    29.645466    67.059116
H     53.058449    30.893040    65.835528
N     53.611321    28.470476    66.225805
H     53.725670    28.763011    65.265884
H     53.300804    29.132978    66.922059
C     66.534700    23.013400    53.022700
O     67.718525    23.075176    52.626163
O     65.823416    21.986017    53.055259
H     66.076721    23.949250    53.375461
