88
shell8p5 TS-under-field
C     60.14190600    34.25017500    56.86750500
H     60.65410400    33.35229400    57.20242100
H     60.73860600    35.07435300    56.47491200
C     58.80287300    34.45194900    57.16141800
C     58.13069700    35.79868100    56.84307300
O     58.86276300    36.77666300    56.53446600
O     56.87734100    35.82963400    56.93983700
O     58.04533200    33.51170800    57.60013500
C     57.53567900    32.20862600    56.01945400
H     56.92805500    31.57263500    56.66681400
C     58.86068700    31.87524000    55.78984900
H     59.36035100    31.12725100    56.40326400
C     59.64119800    32.67145500    54.96010600
C     58.97535300    33.57937300    54.02371700
H     59.61208400    34.05213900    53.27111900
C     57.64453400    33.77154800    54.05277400
H     57.14874400    34.42947900    53.33266900
C     56.77153500    33.13738000    55.09626400
H     56.36648800    33.96180100    55.70835200
O     55.70405500    32.44082700    54.44502300
H     55.04194600    32.20048300    55.11214300
C     61.07068900    32.21901900    54.67969600
O     61.72429900    31.71851300    55.62834500
O     61.44865900    32.31879300    53.48933100
C     66.793300    36.545300    46.067300
O     67.977125    36.607076    45.670763
O     66.082016    35.517917    46.099859
H     66.335321    37.481150    46.420061
C     49.201400    36.833300    63.416900
N     49.351977    37.218520    62.152846
H     49.041460    37.881022    62.849100
H     49.548146    36.263482    62.416513
N     48.792501    37.705704    64.333749
H     48.988670    36.750666    64.597416
H     48.906849    37.998240    63.373828
N     49.459721    35.575676    63.764105
H     49.574070    35.868211    62.804184
H     49.149204    36.238178    64.460359
C     62.291900    31.669400    43.371900
O     63.475725    31.731176    42.975363
O     61.580616    30.642017    43.404459
H     61.833921    32.605250    43.724661
C     59.428000    22.284500    52.181900
O     60.611825    22.346276    51.785363
O     58.716716    21.257117    52.214459
H     58.970021    23.220350    52.534661
C     64.506400    22.175800    54.059600
O     65.690225    22.237576    53.663063
O     63.795116    21.148417    54.092159
H     64.048421    23.111650    54.412361
C     63.121500    23.504800    48.466400
O     64.305325    23.566576    48.069863
O     62.410216    22.477417    48.498959
H     62.663521    24.440650    48.819161
C     54.808600    36.832300    66.772300
N     54.959177    37.217520    65.508246
H     54.648660    37.880022    66.204500
H     55.155346    36.262482    65.771913
N     54.399701    37.704704    67.689149
H     54.595870    36.749666    67.952816
H     54.514049    37.997240    66.729228
N     55.066921    35.574676    67.119505
H     55.181270    35.867211    66.159584
H     54.756404    36.237178    67.815759
C     51.585900    28.299700    64.067800
N     51.736477    28.684920    62.803746
H     51.425960    29.347422    63.500000
H     51.932646    27.729882    63.067413
N     51.177001    29.172104    64.984649
H     51.373170    28.217066    65.248316
H     51.291349    29.464640    64.024728
N     51.844221    27.042076    64.415005
H     51.958570    27.334611    63.455084
H     51.533704    27.704578    65.111259
C     69.410200    30.843100    47.281800
O     70.594025    30.904876    46.885263
O     68.698916    29.815717    47.314359
H     68.952221    31.778950    47.634561
C     63.087100    27.808000    64.888600
N     63.237677    28.193220    63.624546
H     62.927160    28.855722    64.320800
H     63.433846    27.238182    63.888213
N     62.678201    28.680404    65.805449
H     62.874370    27.725366    66.069116
H     62.792549    28.972940    64.845528
N     63.345421    26.550376    65.235805
H     63.459770    26.842911    64.275884
H     63.034904    27.212878    65.932059
