76
shell12p0 TS-under-field
C     60.14190600    34.25017500    56.86750500
H     60.65410400    33.35229400    57.20242100
H     60.73860600    35.07435300    56.47491200
C     58.80287300    34.45194900    57.16141800
C     58.13069700    35.79868100    56.84307300
O     58.86276300    36.77666300    56.53446600
O     56.87734100    35.82963400    56.93983700
O     58.04533200    33.51170800    57.60013500
C     57.53567900    32.20862600    56.01945400
H     56.92805500    31.57263500    56.66681400
C     58.86068700    31.87524000    55.78984900
H     59.36035100    31.12725100    56.40326400
C     59.64119800    32.67145500    54.96010600
C     58.97535300    33.57937300    54.02371700
H     59.61208400    34.05213900    53.27111900
C     57.64453400    33.77154800    54.05277400
H     57.14874400    34.42947900    53.33266900
C     56.77153500    33.13738000    55.09626400
H     56.36648800    33.96180100    55.70835200
O     55.70405500    32.44082700    54.44502300
H     55.04194600    32.20048300    55.11214300
C     61.07068900    32.21901900    54.67969600
O     61.72429900    31.71851300    55.62834500
O     61.44865900    32.31879300    53.48933100
C     53.068100    31.041700    70.049600
N     53.218677    31.426920    68.785546
H     52.908160    32.089422    69.481800
H     53.414846    30.471882    69.049213
N     52.659201    31.914104    70.966449
H     52.855370    30.959066    71.230116
H     52.773549    32.206640    70.006528
N     53.326421    29.784076    70.396805
H     53.440770    30.076611    69.436884
H     53.015904    30.446578    71.093059
C     70.789800    28.226700    44.289700
O     71.973625    28.288476    43.893163
O     70.078516    27.199317    44.322259
H     70.331821    29.162550    44.642461
C     66.509000    26.109900    42.302200
O     67.692825    26.171676    41.905663
O     65.797716    25.082517    42.334759
H     66.051021    27.045750    42.654961
C     57.041800    33.597200    71.334200
N     57.192377    33.982420    70.070146
H     56.881860    34.644922    70.766400
H     57.388546    33.027382    70.333813
N     56.632901    34.469604    72.251049
H     56.829070    33.514566    72.514716
H     56.747249    34.762140    71.291128
N     57.300121    32.339576    71.681405
H     57.414470    32.632111    70.721484
H     56.989604    33.002078    72.377659
C     70.706900    24.379900    47.104400
O     71.890725    24.441676    46.707863
O     69.995616    23.352517    47.136959
H     70.248921    25.315750    47.457161
C     73.691200    27.149900    50.101200
O     74.875025    27.211676    49.704663
O     72.979916    26.122517    50.133759
H     73.233221    28.085750    50.453961
C     67.751700    30.840600    41.411400
O     68.935525    30.902376    41.014863
O     67.040416    29.813217    41.443959
H     67.293721    31.776450    41.764161
C     65.171300    21.708800    45.513500
O     66.355125    21.770576    45.116963
O     64.460016    20.681417    45.546059
H     64.713321    22.644650    45.866261
C     68.498900    20.940600    50.243000
O     69.682725    21.002376    49.846463
O     67.787616    19.913217    50.275559
H     68.040921    21.876450    50.595761
C     61.667100    26.324900    41.132400
O     62.850925    26.386676    40.735863
O     60.955816    25.297517    41.164959
H     61.209121    27.260750    41.485161
