88
shell6p0 TS-under-field
C     60.14190600    34.25017500    56.86750500
H     60.65410400    33.35229400    57.20242100
H     60.73860600    35.07435300    56.47491200
C     58.80287300    34.45194900    57.16141800
C     58.13069700    35.79868100    56.84307300
O     58.86276300    36.77666300    56.53446600
O     56.87734100    35.82963400    56.93983700
O     58.04533200    33.51170800    57.60013500
C     57.53567900    32.20862600    56.01945400
H     56.92805500    31.57263500    56.66681400
C     58.86068700    31.87524000    55.78984900
H     59.36035100    31.12725100    56.40326400
C     59.64119800    32.67145500    54.96010600
C     58.97535300    33.57937300    54.02371700
H     59.61208400    34.05213900    53.27111900
C     57.64453400    33.77154800    54.05277400
H     57.14874400    34.42947900    53.33266900
C     56.77153500    33.13738000    55.09626400
H     56.36648800    33.96180100    55.70835200
O     55.70405500    32.44082700    54.44502300
H     55.04194600    32.20048300    55.11214300
C     61.07068900    32.21901900    54.67969600
O     61.72429900    31.71851300    55.62834500
O     61.44865900    32.31879300    53.48933100
C     58.387100    36.002100    65.032200
N     58.537677    36.387320    63.768146
H     58.227160    37.049822    64.464400
H     58.733846    35.432282    64.031813
N     57.978201    36.874504    65.949049
H     58.174370    35.919466    66.212716
H     58.092549    37.167040    64.989128
N     58.645421    34.744476    65.379405
H     58.759770    35.037011    64.419484
H     58.334904    35.406978    66.075659
C     60.665600    31.871500    45.890100
O     61.849425    31.933276    45.493563
O     59.954316    30.844117    45.922659
H     60.207621    32.807350    46.242861
C     53.279100    33.869100    63.461200
N     53.429677    34.254320    62.197146
H     53.119160    34.916822    62.893400
H     53.625846    33.299282    62.460813
N     52.870201    34.741504    64.378049
H     53.066370    33.786466    64.641716
H     52.984549    35.034040    63.418128
N     53.537421    32.611476    63.808405
H     53.651770    32.904011    62.848484
H     53.226904    33.273978    64.504659
C     59.269300    31.209400    64.902300
N     59.419877    31.594620    63.638246
H     59.109360    32.257122    64.334500
H     59.616046    30.639582    63.901913
N     58.860401    32.081804    65.819149
H     59.056570    31.126766    66.082816
H     58.974749    32.374340    64.859228
N     59.527621    29.951776    65.249505
H     59.641970    30.244311    64.289584
H     59.217104    30.614278    65.945759
C     56.331000    28.092100    62.938500
N     56.481577    28.477320    61.674446
H     56.171060    29.139822    62.370700
H     56.677746    27.522282    61.938113
N     55.922101    28.964504    63.855349
H     56.118270    28.009466    64.119016
H     56.036449    29.257040    62.895428
N     56.589321    26.834476    63.285705
H     56.703670    27.127011    62.325784
H     56.278804    27.496978    63.981959
C     67.429600    32.206800    48.682100
O     68.613425    32.268576    48.285563
O     66.718316    31.179417    48.714659
H     66.971621    33.142650    49.034861
C     58.855800    27.713000    47.877100
O     60.039625    27.774776    47.480563
O     58.144516    26.685617    47.909659
H     58.397821    28.648850    48.229861
C     63.347300    25.021300    51.602200
O     64.531125    25.083076    51.205663
O     62.636016    23.993917    51.634759
H     62.889321    25.957150    51.954961
C     64.683100    28.042400    47.865200
O     65.866925    28.104176    47.468663
O     63.971816    27.015017    47.897759
H     64.225121    28.978250    48.217961
C     68.212700    28.673600    52.862500
O     69.396525    28.735376    52.465963
O     67.501416    27.646217    52.895059
H     67.754721    29.609450    53.215261
