88
shell8p0 TS-under-field
C     60.14190600    34.25017500    56.86750500
H     60.65410400    33.35229400    57.20242100
H     60.73860600    35.07435300    56.47491200
C     58.80287300    34.45194900    57.16141800
C     58.13069700    35.79868100    56.84307300
O     58.86276300    36.77666300    56.53446600
O     56.87734100    35.82963400    56.93983700
O     58.04533200    33.51170800    57.60013500
C     57.53567900    32.20862600    56.01945400
H     56.92805500    31.57263500    56.66681400
C     58.86068700    31.87524000    55.78984900
H     59.36035100    31.12725100    56.40326400
C     59.64119800    32.67145500    54.96010600
C     58.97535300    33.57937300    54.02371700
H     59.61208400    34.05213900    53.27111900
C     57.64453400    33.77154800    54.05277400
H     57.14874400    34.42947900    53.33266900
C     56.77153500    33.13738000    55.09626400
H     56.36648800    33.96180100    55.70835200
O     55.70405500    32.44082700    54.44502300
H     55.04194600    32.20048300    55.11214300
C     61.07068900    32.21901900    54.67969600
O     61.72429900    31.71851300    55.62834500
O     61.44865900    32.31879300    53.48933100
C     68.234300    34.514900    47.028100
O     69.418125    34.576676    46.631563
O     67.523016    33.487517    47.060659
H     67.776321    35.450750    47.380861
C     62.367800    26.370800    45.802600
O     63.551625    26.432576    45.406063
O     61.656516    25.343417    45.835159
H     61.909821    27.306650    46.155361
C     48.572300    34.605800    61.558900
N     48.722877    34.991020    60.294846
H     48.412360    35.653522    60.991100
H     48.919046    34.035982    60.558513
N     48.163401    35.478204    62.475749
H     48.359570    34.523166    62.739416
H     48.277749    35.770740    61.515828
N     48.830621    33.348176    61.906105
H     48.944970    33.640711    60.946184
H     48.520104    34.010678    62.602359
C     57.114900    34.496200    43.959800
O     58.298725    34.557976    43.563263
O     56.403616    33.468817    43.992359
H     56.656921    35.432050    44.312561
C     55.249900    33.792800    66.888800
N     55.400477    34.178020    65.624746
H     55.089960    34.840522    66.321000
H     55.596646    33.222982    65.888413
N     54.841001    34.665204    67.805649
H     55.037170    33.710166    68.069316
H     54.955349    34.957740    66.845728
N     55.508221    32.535176    67.236005
H     55.622570    32.827711    66.276084
H     55.197704    33.197678    67.932259
C     71.080000    29.752900    54.904900
O     72.263825    29.814676    54.508363
O     70.368716    28.725517    54.937459
H     70.622021    30.688750    55.257661
C     62.042400    38.664400    45.595800
O     63.226225    38.726176    45.199263
O     61.331116    37.637017    45.628359
H     61.584421    39.600250    45.948561
C     70.526300    35.136300    52.523700
O     71.710125    35.198076    52.127163
O     69.815016    34.108917    52.556259
H     70.068321    36.072150    52.876461
C     61.587800    41.853800    64.164300
N     61.738377    42.239020    62.900246
H     61.427860    42.901522    63.596500
H     61.934546    41.283982    63.163913
N     61.178901    42.726204    65.081149
H     61.375070    41.771166    65.344816
H     61.293249    43.018740    64.121228
N     61.846121    40.596176    64.511505
H     61.960470    40.888711    63.551584
H     61.535604    41.258678    65.207759
C     58.694200    45.752800    59.857200
N     58.844777    46.138020    58.593146
H     58.534260    46.800522    59.289400
H     59.040946    45.182982    58.856813
N     58.285301    46.625204    60.774049
H     58.481470    45.670166    61.037716
H     58.399649    46.917740    59.814128
N     58.952521    44.495176    60.204405
H     59.066870    44.787711    59.244484
H     58.642004    45.157678    60.900659
