82
shell8p9 TS-under-field
C     60.14190600    34.25017500    56.86750500
H     60.65410400    33.35229400    57.20242100
H     60.73860600    35.07435300    56.47491200
C     58.80287300    34.45194900    57.16141800
C     58.13069700    35.79868100    56.84307300
O     58.86276300    36.77666300    56.53446600
O     56.87734100    35.82963400    56.93983700
O     58.04533200    33.51170800    57.60013500
C     57.53567900    32.20862600    56.01945400
H     56.92805500    31.57263500    56.66681400
C     58.86068700    31.87524000    55.78984900
H     59.36035100    31.12725100    56.40326400
C     59.64119800    32.67145500    54.96010600
C     58.97535300    33.57937300    54.02371700
H     59.61208400    34.05213900    53.27111900
C     57.64453400    33.77154800    54.05277400
H     57.14874400    34.42947900    53.33266900
C     56.77153500    33.13738000    55.09626400
H     56.36648800    33.96180100    55.70835200
O     55.70405500    32.44082700    54.44502300
H     55.04194600    32.20048300    55.11214300
C     61.07068900    32.21901900    54.67969600
O     61.72429900    31.71851300    55.62834500
O     61.44865900    32.31879300    53.48933100
C     52.093400    30.784000    65.712600
N     52.243977    31.169220    64.448546
H     51.933460    31.831722    65.144800
H     52.440146    30.214182    64.712213
N     51.684501    31.656404    66.629449
H     51.880670    30.701366    66.893116
H     51.798849    31.948940    65.669528
N     52.351721    29.526376    66.059805
H     52.466070    29.818911    65.099884
H     52.041204    30.188878    66.756059
C     61.089100    29.621200    43.244400
O     62.272925    29.682976    42.847863
O     60.377816    28.593817    43.276959
H     60.631121    30.557050    43.597161
C     63.276700    25.052200    45.885300
O     64.460525    25.113976    45.488763
O     62.565416    24.024817    45.917859
H     62.818721    25.988050    46.238061
C     59.819400    27.966200    66.439700
N     59.969977    28.351420    65.175646
H     59.659460    29.013922    65.871900
H     60.166146    27.396382    65.439313
N     59.410501    28.838604    67.356549
H     59.606670    27.883566    67.620216
H     59.524849    29.131140    66.396628
N     60.077721    26.708576    66.786905
H     60.192070    27.001111    65.826984
H     59.767204    27.371078    67.483159
C     62.879100    21.874900    51.908200
O     64.062925    21.936676    51.511663
O     62.167816    20.847517    51.940759
H     62.421121    22.810750    52.260961
C     59.495400    23.078200    48.572300
O     60.679225    23.139976    48.175763
O     58.784116    22.050817    48.604859
H     59.037421    24.014050    48.925061
C     71.418400    30.850300    50.286100
O     72.602225    30.912076    49.889563
O     70.707116    29.822917    50.318659
H     70.960421    31.786150    50.638861
C     67.700500    24.617100    49.544100
O     68.884325    24.678876    49.147563
O     66.989216    23.589717    49.576659
H     67.242521    25.552950    49.896861
C     56.190900    34.472100    68.047800
N     56.341477    34.857320    66.783746
H     56.030960    35.519822    67.480000
H     56.537646    33.902282    67.047413
N     55.782001    35.344504    68.964649
H     55.978170    34.389466    69.228316
H     55.896349    35.637040    68.004728
N     56.449221    33.214476    68.395005
H     56.563570    33.507011    67.435084
H     56.138704    33.876978    69.091259
C     68.809400    31.706300    45.898000
O     69.993225    31.768076    45.501463
O     68.098116    30.678917    45.930559
H     68.351421    32.642150    46.250761
