88
shell8p1 TS-under-field
C     60.14190600    34.25017500    56.86750500
H     60.65410400    33.35229400    57.20242100
H     60.73860600    35.07435300    56.47491200
C     58.80287300    34.45194900    57.16141800
C     58.13069700    35.79868100    56.84307300
O     58.86276300    36.77666300    56.53446600
O     56.87734100    35.82963400    56.93983700
O     58.04533200    33.51170800    57.60013500
C     57.53567900    32.20862600    56.01945400
H     56.92805500    31.57263500    56.66681400
C     58.86068700    31.87524000    55.78984900
H     59.36035100    31.12725100    56.40326400
C     59.64119800    32.67145500    54.96010600
C     58.97535300    33.57937300    54.02371700
H     59.61208400    34.05213900    53.27111900
C     57.64453400    33.77154800    54.05277400
H     57.14874400    34.42947900    53.33266900
C     56.77153500    33.13738000    55.09626400
H     56.36648800    33.96180100    55.70835200
O     55.70405500    32.44082700    54.44502300
H     55.04194600    32.20048300    55.11214300
C     61.07068900    32.21901900    54.67969600
O     61.72429900    31.71851300    55.62834500
O     61.44865900    32.31879300    53.48933100
C     64.939600    33.265500    44.428700
O     66.123425    33.327276    44.032163
O     64.228316    32.238117    44.461259
H     64.481621    34.201350    44.781461
C     57.483400    32.050400    67.315500
N     57.633977    32.435620    66.051446
H     57.323460    33.098122    66.747700
H     57.830146    31.480582    66.315113
N     57.074501    32.922804    68.232349
H     57.270670    31.967766    68.496016
H     57.188849    33.215340    67.272428
N     57.741721    30.792776    67.662705
H     57.856070    31.085311    66.702784
H     57.431204    31.455278    68.358959
C     57.234800    27.877200    45.864300
O     58.418625    27.938976    45.467763
O     56.523516    26.849817    45.896859
H     56.776821    28.813050    46.217061
C     70.604200    27.880100    55.895700
O     71.788025    27.941876    55.499163
O     69.892916    26.852717    55.928259
H     70.146221    28.815950    56.248461
C     56.619700    24.873900    63.107100
N     56.770277    25.259120    61.843046
H     56.459760    25.921622    62.539300
H     56.966446    24.304082    62.106713
N     56.210801    25.746304    64.023949
H     56.406970    24.791266    64.287616
H     56.325149    26.038840    63.064028
N     56.878021    23.616276    63.454305
H     56.992370    23.908811    62.494384
H     56.567504    24.278778    64.150559
C     67.627200    26.532800    48.413400
O     68.811025    26.594576    48.016863
O     66.915916    25.505417    48.445959
H     67.169221    27.468650    48.766161
C     67.235400    23.780300    55.388400
O     68.419225    23.842076    54.991863
O     66.524116    22.752917    55.420959
H     66.777421    24.716150    55.741161
C     52.053600    26.340300    62.610700
N     52.204177    26.725520    61.346646
H     51.893660    27.388022    62.042900
H     52.400346    25.770482    61.610313
N     51.644701    27.212704    63.527549
H     51.840870    26.257666    63.791216
H     51.759049    27.505240    62.567628
N     52.311921    25.082676    62.957905
H     52.426270    25.375211    61.997984
H     52.001404    25.745178    63.654159
C     60.990400    38.202100    66.190700
N     61.140977    38.587320    64.926646
H     60.830460    39.249822    65.622900
H     61.337146    37.632282    65.190313
N     60.581501    39.074504    67.107549
H     60.777670    38.119466    67.371216
H     60.695849    39.367040    66.147628
N     61.248721    36.944476    66.537905
H     61.363070    37.237011    65.577984
H     60.938204    37.606978    67.234159
C     60.542700    22.288100    53.749100
O     61.726525    22.349876    53.352563
O     59.831416    21.260717    53.781659
H     60.084721    23.223950    54.101861
