64
shell15p0 TS-under-field
C     60.14190600    34.25017500    56.86750500
H     60.65410400    33.35229400    57.20242100
H     60.73860600    35.07435300    56.47491200
C     58.80287300    34.45194900    57.16141800
C     58.13069700    35.79868100    56.84307300
O     58.86276300    36.77666300    56.53446600
O     56.87734100    35.82963400    56.93983700
O     58.04533200    33.51170800    57.60013500
C     57.53567900    32.20862600    56.01945400
H     56.92805500    31.57263500    56.66681400
C     58.86068700    31.87524000    55.78984900
H     59.36035100    31.12725100    56.40326400
C     59.64119800    32.67145500    54.96010600
C     58.97535300    33.57937300    54.02371700
H     59.61208400    34.05213900    53.27111900
C     57.64453400    33.77154800    54.05277400
H     57.14874400    34.42947900    53.33266900
C     56.77153500    33.13738000    55.09626400
H     56.36648800    33.96180100    55.70835200
O     55.70405500    32.44082700    54.44502300
H     55.04194600    32.20048300    55.11214300
C     61.07068900    32.21901900    54.67969600
O     61.72429900    31.71851300    55.62834500
O     61.44865900    32.31879300    53.48933100
C     62.300000    23.675600    39.167600
O     63.483825    23.737376    38.771063
O     61.588716    22.648217    39.200159
H     61.842021    24.611450    39.520361
C     70.334100    23.270200    42.513600
O     71.517925    23.331976    42.117063
O     69.622816    22.242817    42.546159
H     69.876121    24.206050    42.866361
C     67.161400    25.402400    39.340400
O     68.345225    25.464176    38.943863
O     66.450116    24.375017    39.372959
H     66.703421    26.338250    39.693161
C     69.727100    19.853400    45.886800
O     70.910925    19.915176    45.490263
O     69.015816    18.826017    45.919359
H     69.269121    20.789250    46.239561
C     71.268500    29.653500    40.228300
O     72.452325    29.715276    39.831763
O     70.557216    28.626117    40.260859
H     70.810521    30.589350    40.581061
C     73.272400    21.485000    48.614900
O     74.456225    21.546776    48.218363
O     72.561116    20.457617    48.647459
H     72.814421    22.420850    48.967661
C     74.589200    25.926500    45.325700
O     75.773025    25.988276    44.929163
O     73.877916    24.899117    45.358259
H     74.131221    26.862350    45.678461
C     66.527700    29.855500    37.766200
O     67.711525    29.917276    37.369663
O     65.816416    28.828117    37.798759
H     66.069721    30.791350    38.118961
C     65.516400    20.496300    42.294200
O     66.700225    20.558076    41.897663
O     64.805116    19.468917    42.326759
H     65.058421    21.432150    42.646961
C     75.275000    30.494800    44.316700
O     76.458825    30.556576    43.920163
O     74.563716    29.467417    44.349259
H     74.817021    31.430650    44.669461
