88
-2 1 -839.4175305209625
C       56.17773172    35.54719207    62.19457272
H       56.14830182    35.75280797    61.12247416
H       56.38657944    36.38110105    62.86515988
C       55.95780256    34.31016474    62.67538932
C       55.94032941    34.05644376    64.16119268
O       56.25965112    34.95979021    64.96842963
O       55.50918096    32.91546794    64.59172643
O       55.66323583    33.24710528    61.86104372
C       56.77032589    32.64973822    61.08445108
H       56.31721947    31.75161780    60.64518676
C       57.84540604    32.33068621    62.06786921
H       57.67957753    31.49443715    62.74972616
C       58.87744279    33.17494399    62.28351702
C       59.13758230    34.28951842    61.37145962
H       59.98377909    34.95049830    61.57184043
C       58.39553574    34.43843961    60.25319636
H       58.64260264    35.21190565    59.51879653
C       57.29622023    33.46236292    59.88515799
H       56.44936214    33.98712605    59.40451389
O       57.83495793    32.45128541    59.06497606
H       58.09317661    32.78764953    58.18860750
C       59.58252631    33.06326811    63.60998641
O       59.82029807    31.93478616    64.13578981
O       59.79401016    34.17487902    64.18239734
C       65.78510000    30.63170000    46.11670000
O       66.96892500    30.69347600    45.72016300
O       65.07381600    29.60431700    46.14925900
H       65.32712100    31.56755000    46.46946100
C       58.76530000    25.01830000    49.53100000
O       59.94912500    25.08007600    49.13446300
O       58.05401600    23.99091700    49.56355900
H       58.30732100    25.95415000    49.88376100
C       62.47430000    29.93370000    64.56170000
N       62.62487700    30.31892000    63.29764600
H       62.31436000    30.98142200    63.99390000
H       62.82104600    29.36388200    63.56131300
N       62.06540100    30.80610400    65.47854900
H       62.26157000    29.85106600    65.74221600
H       62.17974900    31.09864000    64.51862800
N       62.73262100    28.67607600    64.90890500
H       62.84697000    28.96861100    63.94898400
H       62.42210400    29.33857800    65.60515900
C       67.86920000    26.31680000    52.98730000
O       69.05302500    26.37857600    52.59076300
O       67.15791600    25.28941700    53.01985900
H       67.41122100    27.25265000    53.34006100
C       58.43100000    36.17390000    66.02590000
N       58.58157700    36.55912000    64.76184600
H       58.27106000    37.22162200    65.45810000
H       58.77774600    35.60408200    65.02551300
N       58.02210100    37.04630400    66.94274900
H       58.21827000    36.09126600    67.20641600
H       58.13644900    37.33884000    65.98282800
N       58.68932100    34.91627600    66.37310500
H       58.80367000    35.20881100    65.41318400
H       58.37880400    35.57877800    67.06935900
C       56.75240000    30.34920000    65.54890000
N       56.90297700    30.73442000    64.28484600
H       56.59246000    31.39692200    64.98110000
H       57.09914600    29.77938200    64.54851300
N       56.34350100    31.22160400    66.46574900
H       56.53967000    30.26656600    66.72941600
H       56.45784900    31.51414000    65.50582800
N       57.01072100    29.09157600    65.89610500
H       57.12507000    29.38411100    64.93618400
H       56.70020400    29.75407800    66.59235900
C       70.05520000    31.93660000    53.14310000
O       71.23902500    31.99837600    52.74656300
O       69.34391600    30.90921700    53.17565900
H       69.59722100    32.87245000    53.49586100
C       59.49130000    30.03730000    45.34810000
O       60.67512500    30.09907600    44.95156300
O       58.78001600    29.00991700    45.38065900
H       59.03332100    30.97315000    45.70086100
C       52.76110000    33.05110000    64.30530000
N       52.91167700    33.43632000    63.04124600
H       52.60116000    34.09882200    63.73750000
H       53.10784600    32.48128200    63.30491300
N       52.35220100    33.92350400    65.22214900
H       52.54837000    32.96846600    65.48581600
H       52.46654900    34.21604000    64.26222800
N       53.01942100    31.79347600    64.65250500
H       53.13377000    32.08601100    63.69258400
H       52.70890400    32.45597800    65.34875900
C       64.72960000    25.91920000    48.44500000
O       65.91342500    25.98097600    48.04846300
O       64.01831600    24.89181700    48.47755900
H       64.27162100    26.85505000    48.79776100
