100
shell8p3 TS-under-field
C     60.14190600    34.25017500    56.86750500
H     60.65410400    33.35229400    57.20242100
H     60.73860600    35.07435300    56.47491200
C     58.80287300    34.45194900    57.16141800
C     58.13069700    35.79868100    56.84307300
O     58.86276300    36.77666300    56.53446600
O     56.87734100    35.82963400    56.93983700
O     58.04533200    33.51170800    57.60013500
C     57.53567900    32.20862600    56.01945400
H     56.92805500    31.57263500    56.66681400
C     58.86068700    31.87524000    55.78984900
H     59.36035100    31.12725100    56.40326400
C     59.64119800    32.67145500    54.96010600
C     58.97535300    33.57937300    54.02371700
H     59.61208400    34.05213900    53.27111900
C     57.64453400    33.77154800    54.05277400
H     57.14874400    34.42947900    53.33266900
C     56.77153500    33.13738000    55.09626400
H     56.36648800    33.96180100    55.70835200
O     55.70405500    32.44082700    54.44502300
H     55.04194600    32.20048300    55.11214300
C     61.07068900    32.21901900    54.67969600
O     61.72429900    31.71851300    55.62834500
O     61.44865900    32.31879300    53.48933100
C     64.952400    26.524100    63.310100
N     65.102977    26.909320    62.046046
H     64.792460    27.571822    62.742300
H     65.299146    25.954282    62.309713
N     64.543501    27.396504    64.226949
H     64.739670    26.441466    64.490616
H     64.657849    27.689040    63.267028
N     65.210721    25.266476    63.657305
H     65.325070    25.559011    62.697384
H     64.900204    25.928978    64.353559
C     45.646700    32.291100    53.564800
N     45.797277    32.676320    52.300746
H     45.486760    33.338822    52.997000
H     45.993446    31.721282    52.564413
N     45.237801    33.163504    54.481649
H     45.433970    32.208466    54.745316
H     45.352149    33.456040    53.521728
N     45.905021    31.033476    53.912005
H     46.019370    31.326011    52.952084
H     45.594504    31.695978    54.608259
C     58.046400    35.268500    67.565100
N     58.196977    35.653720    66.301046
H     57.886460    36.316222    66.997300
H     58.393146    34.698682    66.564713
N     57.637501    36.140904    68.481949
H     57.833670    35.185866    68.745616
H     57.751849    36.433440    67.522028
N     58.304721    34.010876    67.912305
H     58.419070    34.303411    66.952384
H     57.994204    34.673378    68.608559
C     63.480000    35.970200    66.489800
N     63.630577    36.355420    65.225746
H     63.320060    37.017922    65.922000
H     63.826746    35.400382    65.489413
N     63.071101    36.842604    67.406649
H     63.267270    35.887566    67.670316
H     63.185449    37.135140    66.446728
N     63.738321    34.712576    66.837005
H     63.852670    35.005111    65.877084
H     63.427804    35.375078    67.533259
C     56.375000    23.319700    50.714800
O     57.558825    23.381476    50.318263
O     55.663716    22.292317    50.747359
H     55.917021    24.255550    51.067561
C     51.963100    43.566900    60.622700
N     52.113677    43.952120    59.358646
H     51.803160    44.614622    60.054900
H     52.309846    42.997082    59.622313
N     51.554201    44.439304    61.539549
H     51.750370    43.484266    61.803216
H     51.668549    44.731840    60.579628
N     52.221421    42.309276    60.969905
H     52.335770    42.601811    60.009984
H     51.910904    42.971778    61.666159
C     56.819000    30.528400    67.047900
N     56.969577    30.913620    65.783846
H     56.659060    31.576122    66.480100
H     57.165746    29.958582    66.047513
N     56.410101    31.400804    67.964749
H     56.606270    30.445766    68.228416
H     56.524449    31.693340    67.004828
N     57.077321    29.270776    67.395105
H     57.191670    29.563311    66.435184
H     56.766804    29.933278    68.091359
C     69.268200    37.499800    50.589100
O     70.452025    37.561576    50.192563
O     68.556916    36.472417    50.621659
H     68.810221    38.435650    50.941861
C     64.928800    27.907200    45.149500
O     66.112625    27.968976    44.752963
O     64.217516    26.879817    45.182059
H     64.470821    28.843050    45.502261
C     55.618400    34.129200    43.787600
O     56.802225    34.190976    43.391063
O     54.907116    33.101817    43.820159
H     55.160421    35.065050    44.140361
