88
shell8p0 K=10 +-1 net-free proxy+11.33
C     60.11193800    34.38396900    57.21013200
H     60.60719900    33.42993900    57.38460900
H     60.72469300    35.27181800    57.05919300
C     58.78057700    34.50353200    57.15195800
C     58.09218200    35.83426100    56.89335400
O     58.81246700    36.81821800    56.57878900
O     56.83954900    35.84891700    57.00961700
O     57.93461500    33.42640300    57.34599800
C     57.67693600    32.53773200    56.20080600
H     57.01901700    31.76376900    56.62407200
C     58.98648700    31.96184000    55.79317200
H     59.46393000    31.24298300    56.46049600
C     59.68310500    32.48267100    54.76815100
C     59.06432100    33.48370900    53.89317900
H     59.70236100    33.90454400    53.11096900
C     57.78125300    33.86565900    54.03153300
H     57.33218100    34.60235400    53.35662900
C     56.88979900    33.27109300    55.08618200
H     56.34719000    34.09064800    55.58588000
O     55.96286300    32.39770700    54.43466800
H     55.31084500    32.10952700    55.09277000
C     61.12320000    32.06212600    54.53420800
O     61.78496200    31.70232800    55.54338100
O     61.54107100    32.10651300    53.35273800
C     68.234300    34.514900    47.028100
O     69.418125    34.576676    46.631563
O     67.523016    33.487517    47.060659
H     67.776321    35.450750    47.380861
C     62.367800    26.370800    45.802600
O     63.551625    26.432576    45.406063
O     61.656516    25.343417    45.835159
H     61.909821    27.306650    46.155361
C     48.572300    34.605800    61.558900
N     48.722877    34.991020    60.294846
H     48.412360    35.653522    60.991100
H     48.919046    34.035982    60.558513
N     48.163401    35.478204    62.475749
H     48.359570    34.523166    62.739416
H     48.277749    35.770740    61.515828
N     48.830621    33.348176    61.906105
H     48.944970    33.640711    60.946184
H     48.520104    34.010678    62.602359
C     57.114900    34.496200    43.959800
O     58.298725    34.557976    43.563263
O     56.403616    33.468817    43.992359
H     56.656921    35.432050    44.312561
C     55.249900    33.792800    66.888800
N     55.400477    34.178020    65.624746
H     55.089960    34.840522    66.321000
H     55.596646    33.222982    65.888413
N     54.841001    34.665204    67.805649
H     55.037170    33.710166    68.069316
H     54.955349    34.957740    66.845728
N     55.508221    32.535176    67.236005
H     55.622570    32.827711    66.276084
H     55.197704    33.197678    67.932259
C     71.080000    29.752900    54.904900
O     72.263825    29.814676    54.508363
O     70.368716    28.725517    54.937459
H     70.622021    30.688750    55.257661
C     62.042400    38.664400    45.595800
O     63.226225    38.726176    45.199263
O     61.331116    37.637017    45.628359
H     61.584421    39.600250    45.948561
C     70.526300    35.136300    52.523700
O     71.710125    35.198076    52.127163
O     69.815016    34.108917    52.556259
H     70.068321    36.072150    52.876461
C     61.587800    41.853800    64.164300
N     61.738377    42.239020    62.900246
H     61.427860    42.901522    63.596500
H     61.934546    41.283982    63.163913
N     61.178901    42.726204    65.081149
H     61.375070    41.771166    65.344816
H     61.293249    43.018740    64.121228
N     61.846121    40.596176    64.511505
H     61.960470    40.888711    63.551584
H     61.535604    41.258678    65.207759
C     58.694200    45.752800    59.857200
N     58.844777    46.138020    58.593146
H     58.534260    46.800522    59.289400
H     59.040946    45.182982    58.856813
N     58.285301    46.625204    60.774049
H     58.481470    45.670166    61.037716
H     58.399649    46.917740    59.814128
N     58.952521    44.495176    60.204405
H     59.066870    44.787711    59.244484
H     58.642004    45.157678    60.900659
