82
-2 1 -838.2474209940239
C       57.21031060    33.18016296    61.82458345
H       57.56624539    33.11358311    60.79507617
H       57.31096067    34.13554034    62.33620563
C       56.64934755    32.11758598    62.43446233
C       56.08194624    32.32057927    63.81212795
O       56.24093052    33.41619002    64.38894212
O       55.32579264    31.41493841    64.41032936
O       56.48547906    30.92157571    61.78936506
C       57.67295751    30.10543410    61.44353635
H       57.24223336    29.26461503    60.88820124
C       58.20491366    29.74517221    62.78628836
H       57.56982125    29.09916490    63.39261020
C       59.13301222    30.50300264    63.40457265
C       60.00237035    31.38075961    62.61266896
H       60.81641920    31.90363655    63.11917900
C       59.81326369    31.50128231    61.28226151
H       60.49068001    32.10895526    60.67562917
C       58.76845884    30.69553562    60.53292680
H       58.30478920    31.28766797    59.72390953
O       59.39119534    29.52850188    60.04013195
H       59.89953380    29.71455158    59.22942767
C       59.06330765    30.62086722    64.89076213
O       58.00661405    30.18564655    65.50946225
O       59.92850942    31.27574649    65.51796868
C       58.05930000    32.81320000    67.34890000
N       58.20987700    33.19842000    66.08484600
H       57.89936000    33.86092200    66.78110000
H       58.40604600    32.24338200    66.34851300
N       57.65040100    33.68560400    68.26574900
H       57.84657000    32.73056600    68.52941600
H       57.76474900    33.97814000    67.30582800
N       58.31762100    31.55557600    67.69610500
H       58.43197000    31.84811100    66.73618400
H       58.00710400    32.21807800    68.39235900
C       68.78550000    32.68210000    47.20600000
O       69.96932500    32.74387600    46.80946300
O       68.07421600    31.65471700    47.23855900
H       68.32752100    33.61795000    47.55876100
C       70.06330000    28.29850000    51.49350000
O       71.24712500    28.36027600    51.09696300
O       69.35201600    27.27111700    51.52605900
H       69.60532100    29.23435000    51.84626100
C       62.24210000    30.27240000    44.03830000
O       63.42592500    30.33417600    43.64176300
O       61.53081600    29.24501700    44.07085900
H       61.78412100    31.20825000    44.39106100
C       55.75480000    28.61400000    65.50240000
N       55.90537700    28.99922000    64.23834600
H       55.59486000    29.66172200    64.93460000
H       56.10154600    28.04418200    64.50201300
N       55.34590100    29.48640400    66.41924900
H       55.54207000    28.53136600    66.68291600
H       55.46024900    29.77894000    65.45932800
N       56.01312100    27.35637600    65.84960500
H       56.12747000    27.64891100    64.88968400
H       55.70260400    28.01887800    66.54585900
C       61.92210000    25.99330000    46.06640000
O       63.10592500    26.05507600    45.66986300
O       61.21081600    24.96591700    46.09895900
H       61.46412100    26.92915000    46.41916100
C       61.22010000    23.18460000    50.05310000
O       62.40392500    23.24637600    49.65656300
O       60.50881600    22.15721700    50.08565900
H       60.76212100    24.12045000    50.40586100
C       53.47810000    32.86700000    66.03510000
N       53.62867700    33.25222000    64.77104600
H       53.31816000    33.91472200    65.46730000
H       53.82484600    32.29718200    65.03471300
N       53.06920100    33.73940400    66.95194900
H       53.26537000    32.78436600    67.21561600
H       53.18354900    34.03194000    65.99202800
N       53.73642100    31.60937600    66.38230500
H       53.85077000    31.90191100    65.42238400
H       53.42590400    32.27187800    67.07855900
C       65.84890000    24.39480000    49.80490000
O       67.03272500    24.45657600    49.40836300
O       65.13761600    23.36741700    49.83745900
H       65.39092100    25.33065000    50.15766100
C       66.77620000    28.49640000    46.27060000
O       67.96002500    28.55817600    45.87406300
O       66.06491600    27.46901700    46.30315900
H       66.31822100    29.43225000    46.62336100
